 $contrl scftyp=reks runtyp=hessian  dfttyp=bhhlyp icharg=1
         maxit=200 mult=1
         nzvar=36
 $end
 $zmat dlc=.t. auto=.t. $end
 $force method=seminum  purify=.true. $end
 $dft sg1=.true. $end
 $scf
 nconv=7
 npunch=2
 $end
$reks
   rexType=1 rexTarget=1 wpps=0.5 rexShift=0.4 rexDIIS=no
$end
 $basis gbasis=n31 ngauss=6 ndfunc=1 $end
 $guess guess=moread norb=60 $end
 $system timlim=999999100 mwords=700 $end
 $data
 PSB3
 c1
 C    6.0      -3.06139063    0.23716652    0.00000000
 C    6.0      -1.90747390   -0.44212550    0.00000000
 H    1.0      -3.08428495    1.31543804    0.00000000
 H    1.0      -4.01200228   -0.26852013    0.00000000
 H    1.0      -1.90464673   -1.52059244    0.00000000
 C    6.0      -0.65494602    0.23598372    0.00000000
 C    6.0       0.56169250   -0.37945936    0.00000000
 H    1.0      -0.68545908    1.31721883    0.00000000
 H    1.0       0.63538512   -1.45559078    0.00000000
 C    6.0       1.72702918    0.39347894    0.00000000
 H    1.0       1.64927368    1.47030094    0.00000000
 N    7.0       2.93638619   -0.08230066    0.00000000
 H    1.0       3.74094162    0.52062663    0.00000000
 H    1.0       3.11662244   -1.07304230    0.00000000
 $end
 $VEC   
 1  1-2.80112045E-07 4.84402782E-07-8.87108527E-06 3.29734094E-06-6.63606102E-13
 1  2-8.93094924E-05-2.91989521E-05-1.30434427E-05-4.93045364E-13-2.58800495E-06
 1  3 4.58594090E-07-2.58317797E-06 9.92485745E-07 2.06339749E-14 9.26305257E-15
 1  4-2.98737515E-06-1.90464473E-05 1.30645177E-05-1.99934390E-06-2.90234745E-13
 1  5 2.86156271E-04 5.71787081E-05 1.40830838E-04-6.42572392E-13 8.63809577E-06
 1  6-3.38332702E-07-6.48537019E-06 4.75739260E-06 7.11093828E-15-5.46267722E-14
 1  7 1.51435158E-06 2.36517819E-05-2.08350853E-07 4.08159616E-06 5.56082209E-06
 1  8 2.78766806E-05-2.11806776E-06-2.59724941E-06-1.46851283E-05-1.55011458E-05
 1  9 2.74810042E-13-1.89444705E-04 2.44836842E-04 1.19845320E-04 9.97479139E-13
 1 10-3.49709917E-06 4.84470842E-06-9.38783403E-06-2.38917598E-05 4.98029627E-14
 1 11 5.40891960E-14 3.82129040E-06 5.03645450E-05-1.37004104E-05-6.38907314E-06
 1 12 5.63767196E-13-3.55855577E-04-2.76408821E-04 4.89983641E-05 9.42128259E-13
 1 13-7.14189149E-05 2.37241981E-05-6.26655963E-06 6.30104917E-06 1.08291976E-13
 1 14 4.03629565E-13-1.72006357E-05-1.41483630E-05 1.38937589E-05 7.87863076E-05
 1 15 5.28775014E-05 2.50334893E-04 1.98125919E-04-7.28066050E-05-7.86480387E-13
 1 16 5.88605861E-04 2.81846946E-04-4.30515807E-04-4.56738714E-12-8.29135266E-05
 1 17-2.05697891E-05-3.00561438E-05 2.79212230E-05 8.91757951E-13 5.15630830E-13
 1 18-1.48246984E-05 1.19206363E-04 9.93534662E-01 3.10697533E-02-1.75794845E-04
 1 19 6.22672420E-05-2.68425612E-11 1.50170764E-03 3.85082405E-04-7.18615211E-05
 1 20 1.25388565E-11-6.38619419E-03-6.40857600E-03-6.47603542E-03-2.37475154E-05
 1 21-3.44167055E-12 8.23616688E-13 2.96148068E-04-2.48867501E-04 3.04697772E-04
 1 22-2.05017303E-04
 2  1-8.84604289E-06-3.43331564E-05-8.28172124E-06 6.29680529E-06 6.21749213E-12
 2  2 4.03512077E-04 1.40940111E-04-2.87114020E-04 4.20980267E-12 1.84290613E-06
 2  3 4.05013718E-06-2.05440913E-05-5.94880026E-06 1.70711282E-13-1.85727014E-13
 2  4-1.26419423E-05-8.49580714E-05-6.73325942E-06 3.87550079E-06 6.20461878E-12
 2  5 8.21004954E-04 9.74502889E-04 1.70422463E-04 5.96907030E-12 1.74719208E-05
 2  6-1.41618388E-05-3.50800621E-05 1.72550355E-05-2.86335762E-13 2.63880369E-13
 2  7-3.71923692E-06 1.37810265E-04-2.42988401E-05-2.86296988E-06-4.58316890E-05
 2  8 8.05328288E-05 8.63651550E-06-1.15462978E-04-5.73964731E-05-6.78934643E-05
 2  9-1.40563148E-12-6.85140858E-04 8.97512482E-04 5.61212917E-04-2.51754755E-12
 2 10 1.01383323E-04 3.85796575E-05-3.85431066E-05-5.42804284E-05-5.72240823E-13
 2 11-4.91147557E-13 5.79817262E-03-1.00478383E-04-2.17653288E-04-2.13258773E-04
 2 12-5.33406774E-12 4.84423204E-03 2.04188811E-03 1.20767057E-03-1.00717336E-11
 2 13-3.84595283E-04-3.59368265E-04-1.82555754E-04-5.70214115E-05 2.73499554E-12
 2 14 6.73876111E-13-7.82786011E-05-1.38207803E-04-9.44816964E-05 4.06923635E-05
 2 15 9.93886632E-01 4.04893069E-02 7.21143714E-04-4.41711779E-04-3.49301935E-11
 2 16-1.15458258E-02 2.33652146E-03 9.11456811E-04 1.52257722E-11-5.72883260E-03
 2 17-6.37822923E-03-6.90745606E-03-1.86036658E-04-3.83497259E-12-1.77479060E-12
 2 18-2.11117139E-04 1.87108025E-03-3.29966140E-04-1.94589409E-05 2.79199071E-04
 2 19-7.18617871E-05 8.12134699E-12 9.17190254E-04 3.86131359E-04-8.41136078E-04
 2 20 2.77379439E-12-6.59459833E-04-2.79524710E-04 3.68911224E-05 2.71822656E-04
 2 21-1.65673914E-12 1.59404344E-12 1.18289911E-04-5.55202471E-05-6.31188355E-05
 2 22-3.46303925E-04
 3  1 3.75915739E-04-1.19725152E-04 7.43760304E-07-8.03644872E-06 7.31112792E-12
 3  2 3.97853415E-04 1.02708917E-04-2.25080745E-04 7.00381521E-12 9.48987025E-05
 3  3 3.76164354E-05-4.23720322E-05-1.51456228E-05-4.89644855E-13-2.67751293E-13
 3  4 1.40063268E-02 3.34250155E-04-2.09728845E-04-1.56211109E-04 7.07091485E-12
 3  5 4.35230923E-03 2.27392015E-03 3.49096428E-04 7.24350595E-12-5.14472968E-04
 3  6-4.35161743E-04-2.28233389E-04-1.62046884E-04 4.34490271E-13 7.78705890E-14
 3  7 2.87942682E-07-3.86536101E-06-3.26586397E-05 7.51977749E-05-1.30465658E-04
 3  8-3.32341229E-04 9.92838191E-01 4.08180350E-02 1.49619859E-04-2.84209740E-04
 3  9-6.11264461E-12-1.51375857E-02-2.58168658E-04 2.13677333E-03-5.03749481E-12
 3 10-5.97643119E-03-6.31476851E-03-6.72277532E-03-6.60782501E-05-9.20854924E-12
 3 11-3.62056094E-12 4.42139170E-02 1.43994231E-03 3.08588143E-04-1.77290118E-04
 3 12-1.26577128E-11 4.98553792E-03-2.21909295E-03 3.64376595E-04-8.99501076E-12
 3 13-6.76275499E-04-6.42340400E-04-4.36278190E-04 1.27248739E-04 9.92303086E-13
 3 14-1.40284944E-12-2.61067638E-04 1.65901581E-03-1.28946349E-04-3.12414177E-04
 3 15-2.98837879E-04-1.45656405E-04-1.71332581E-07-1.63266531E-05-2.04204156E-12
 3 16 1.31153363E-05-2.07416462E-04 2.59565961E-04-1.10991548E-12 9.05856890E-05
 3 17 9.79568132E-06-2.26587285E-05 1.99204771E-05 1.38997044E-12-1.62855706E-13
 3 18-2.62661557E-05-2.12441894E-04-1.19045280E-05-5.49033890E-05 2.87892149E-05
 3 19 4.16283819E-06 6.82001208E-12 3.55467209E-04-3.31640259E-04-1.01403198E-04
 3 20 6.09966643E-12 4.53806665E-07-2.81157648E-05-3.07899189E-05 1.54799138E-05
 3 21-1.46148125E-13 1.34347015E-13 2.77503395E-05 1.15948543E-04-5.18054515E-05
 3 22 7.33403085E-05
 4  1-7.32805991E-05-4.21231273E-05-1.88858856E-05-6.81154878E-06-2.92612729E-12
 4  2 1.84237013E-04 3.90733841E-04 1.70610599E-04-4.26883235E-12 1.59668945E-05
 4  3-1.78158651E-05-1.32165725E-05 1.27378280E-05 1.10196060E-13-6.08567699E-14
 4  4-1.38955337E-03-9.78642073E-05 1.42227558E-05 3.88122200E-05 6.83568922E-13
 4  5-4.21538338E-04-2.14404569E-04-1.81712218E-04 9.08232620E-13 1.15343643E-04
 4  6 5.74798063E-05 1.26250677E-05 2.81151996E-05 3.31829090E-13 2.94475338E-14
 4  7-5.31569132E-05 1.55634698E-05 2.28259008E-05 1.96488048E-04 2.20740198E-06
 4  8-1.08265263E-04-4.47194546E-02-2.25742136E-03-2.90921414E-04 1.75850395E-04
 4  9 2.77314238E-12 6.76038117E-03 2.63667708E-03-7.08325524E-04 6.50975930E-12
 4 10-8.55966116E-05-4.26321438E-05 1.70521922E-04 7.81905732E-05-1.86324709E-12
 4 11 6.70960262E-13 9.92901342E-01 4.12800203E-02 1.34402263E-04 4.91182803E-04
 4 12 1.46716229E-11-1.67587198E-02 1.93285320E-04-2.79291500E-03-1.01051932E-11
 4 13-6.09993474E-03-6.30551761E-03-6.75319333E-03-2.88274899E-06 2.22514533E-12
 4 14-3.47742627E-13-9.51316430E-05-4.74993662E-04-2.59296071E-04 1.53456185E-03
 4 15-6.23637786E-03-5.44342724E-04 2.14681215E-04 2.23581896E-04-1.85517503E-12
 4 16 5.99627353E-03-1.99941429E-03-1.18849830E-03-2.06554477E-12-4.17280094E-04
 4 17-3.44386502E-04-1.01810882E-04-1.89687829E-04-1.14225144E-13-1.12501453E-12
 4 18-9.97618804E-05-2.20417792E-04 2.35003247E-05 6.82884091E-06-1.99181686E-05
 4 19 3.46245868E-06 1.39326238E-12-6.37173924E-04 3.18962794E-04 1.72001757E-04
 4 20 2.90997729E-12 1.21166852E-04 8.92826070E-05 3.39365361E-06-5.62996832E-07
 4 21 7.09064170E-13-1.30781713E-13-3.77165690E-05 6.45331430E-05 3.46341508E-05
 4 22 3.90353309E-05
 5  1 9.90222341E-01 4.04830183E-02 2.96132028E-04-1.02207489E-04-9.71224188E-12
 5  2-1.20494692E-02-7.56748191E-04 4.23193326E-04 4.62457164E-12-6.18718057E-03
 5  3-6.38050044E-03-6.90938465E-03-1.65247961E-04 1.93294843E-11 1.73780260E-11
 5  4 8.47420522E-02 3.14345780E-03 3.34324137E-04-1.78813974E-04 2.31091896E-12
 5  5 2.83018387E-03-1.67950768E-03 2.72610532E-04-7.87641006E-13-9.19482249E-04
 5  6-8.45226676E-04-6.84454775E-04 4.27726158E-05-3.87533889E-12-2.50540476E-12
 5  7-2.32759937E-04 2.11025553E-03-2.43987436E-04 2.08130851E-03-1.03187940E-04
 5  8-1.21612022E-04-1.62918270E-03-2.07148122E-04 6.55112479E-05-4.90953293E-05
 5  9-3.01301533E-13 6.56459211E-06-1.15235985E-03 5.41302359E-04-2.50703388E-13
 5 10 8.56510573E-05 7.46940932E-06-2.44652316E-05 4.30412033E-05 3.13217575E-13
 5 11-1.24728093E-13 1.03637881E-04-6.26045366E-05-9.34129102E-06 2.19492011E-06
 5 12-5.47573521E-13 8.91188301E-04-7.19707801E-04 1.44756639E-04-1.19685908E-13
 5 13 3.38838716E-05-1.14672832E-05-1.90973071E-05-2.30101127E-06-5.72813439E-14
 5 14-9.92049587E-14-7.39401720E-05-3.21270066E-04-3.21185676E-05 6.46021660E-05
 5 15-3.72036672E-06-2.24829723E-05 7.81439620E-06 1.15606015E-05-4.31572899E-13
 5 16 5.06555295E-05-2.42863744E-04-1.28178890E-04-4.76875000E-13-1.57323026E-05
 5 17-1.18041239E-06-1.26297516E-05 6.14305122E-06 1.49145469E-13-1.78682138E-14
 5 18-1.13682079E-05 1.17412264E-04-7.34573056E-06-3.00521041E-05 8.41066623E-06
 5 19 2.39429655E-07 4.16129893E-13 2.07726936E-04-1.22618860E-04 5.51991560E-05
 5 20 4.80319266E-13-1.14529886E-06-1.17040830E-05-2.39879311E-05-8.19094108E-06
 5 21-3.58043880E-14 1.80279535E-15-1.25273542E-06 2.40501764E-05-9.40647070E-06
 5 22 3.80347318E-05
 6  1-8.53012425E-02-3.90685523E-03-3.03454003E-04 1.63452423E-04-3.67998640E-12
 6  2 6.38876827E-03 2.26615906E-03-3.32540379E-04-4.35847694E-12 2.08759310E-04
 6  3 2.36181859E-04 4.95233054E-04 1.21245897E-04-3.11435081E-12-4.24462213E-12
 6  4 9.90196615E-01 4.10044062E-02 1.17664193E-05 4.47270785E-04 1.05750827E-11
 6  5-1.60502073E-02-2.86721993E-04-2.57056971E-03-1.53079887E-11-5.99536909E-03
 6  6-6.26763479E-03-6.72173195E-03-1.22253666E-04-5.18252577E-12-9.72738474E-12
 6  7-1.21688972E-04-6.54439561E-04 4.84942007E-07-1.31719774E-05-2.54447358E-04
 6  8 1.54421300E-03-1.43689565E-02-8.27163650E-04 2.37073335E-04 1.84241488E-04
 6  9 9.83689826E-12 5.92129071E-03-2.12589683E-03-8.34778583E-04 7.44868118E-12
 6 10-3.76720941E-04-2.65254136E-04-3.58866370E-05-1.75053150E-04 2.53870339E-13
 6 11-3.66663906E-13 7.72389403E-04 3.94341641E-06 7.05372441E-06 5.67475983E-05
 6 12 7.43796040E-12-8.11744567E-04 1.20177902E-04-4.32004784E-04 5.87002930E-12
 6 13 6.81704251E-05 5.10666567E-05-1.12205449E-05-3.39554856E-05-4.57334905E-13
 6 14 2.88834134E-13-8.93035949E-05-3.75266305E-04-2.50336627E-05-1.75162818E-04
 6 15-1.89312887E-05-4.74985786E-05-7.63939685E-07-1.57979310E-06-4.26011738E-13
 6 16 2.59343772E-04-6.94218738E-04 4.09802629E-05-1.84471646E-12 1.98097461E-06
 6 17-1.64817688E-05-1.29951590E-05 5.73760174E-06-6.22428624E-13 5.08318993E-15
 6 18-4.23695852E-05 4.69999013E-05-7.77976869E-06-3.52064983E-05 1.80551030E-07
 6 19-1.10089554E-05-3.43470566E-12 4.30260519E-04-1.27805182E-04 1.67917035E-04
 6 20-2.21980518E-12-6.02529819E-06-1.41884352E-05-1.77642170E-05-4.44337186E-06
 6 21 1.38620798E-13-4.91174514E-14-2.62365755E-05 3.24050519E-06 9.46255690E-06
 6 22 5.66446855E-05
 7  1-7.40733047E-04 1.16706458E-03 1.20527566E-03-4.86323715E-04 2.79539083E-10
 7  2 5.83884141E-03 2.91056740E-03 1.20510193E-03 1.99816702E-10 2.60626873E-04
 7  3-5.49932481E-05-9.85459134E-05-1.67156291E-04 1.16507432E-11-9.19615053E-12
 7  4-2.33921545E-03 5.78223283E-03 1.91347597E-03 1.14192115E-03 2.91221694E-10
 7  5-1.69506087E-02-4.64693558E-03-7.15013392E-03 2.11785728E-10-8.30459257E-05
 7  6 5.05202475E-05-1.00743649E-04 1.82345789E-04-1.07984739E-11 7.05320163E-12
 7  7 1.22873658E-04-1.52542920E-03 2.53556558E-04 4.43882239E-04 9.20804947E-04
 7  8-9.17962739E-04-1.03519805E-02 2.01072260E-02 1.24324919E-02-2.30115317E-03
 7  9-6.98581562E-11 2.86239153E-02-1.06236339E-02-1.49616050E-02-1.65691516E-11
 7 10 1.35568633E-03-1.06846305E-04-1.13178934E-03-5.07506277E-04-2.43581382E-11
 7 11-4.52493669E-12-3.47698706E-02 6.53429750E-02 3.47614101E-02 1.72174835E-02
 7 12-3.25080549E-10 4.94703050E-02 3.01645337E-02 1.89681086E-03-2.76889605E-10
 7 13 5.79587977E-03 4.89587296E-04-4.11187750E-03 3.72372704E-03-2.02933364E-11
 7 14-4.07710489E-12 5.61687448E-03 4.21635949E-03 1.33026390E-02 1.25857354E-03
 7 15-1.14182801E-01 2.29001673E-01 1.17723623E-01-5.69337500E-02-6.60210568E-10
 7 16 4.96182770E-02-1.81585378E-02 3.34542645E-02-2.98317950E-10 1.31026497E-02
 7 17-3.09047623E-03-1.49124162E-02-9.73581135E-03-5.42683543E-11 1.10076324E-10
 7 18 3.97220414E-02-9.86443548E-03-1.87104041E-01 3.90946626E-01-6.44304138E-02
 7 19 2.35606829E-02 1.89256358E-10 4.01520089E-01-3.21637044E-02 5.46856264E-03
 7 20 1.89840776E-10 1.29483321E-02 1.08376612E-02-1.61699984E-02-4.91003631E-04
 7 21 1.19833486E-10 2.35436679E-11 9.79038927E-02-2.64598541E-03 9.79467454E-02
 7 22-6.25059161E-03
 8  1-6.54690851E-02 1.27413705E-01 5.82600718E-02-2.31781204E-02-1.57942997E-10
 8  2 9.57791361E-02 1.05401722E-02-3.57289743E-03-2.60363771E-10 5.84606658E-03
 8  3 9.37838821E-04-6.90464794E-03-3.38781952E-03-1.20643214E-10-6.75575521E-11
 8  4-1.09948348E-01 2.14351122E-01 2.67387367E-02 4.76245641E-02-4.04166194E-10
 8  5 1.33917091E-01 1.71223452E-02-6.33851068E-03-1.26639850E-10 7.73768458E-03
 8  6 2.37320625E-03-1.10349299E-02 1.89416514E-03 4.77533010E-11-1.53819469E-10
 8  7 3.08901438E-02 3.50908830E-03 2.55692644E-02 1.46391101E-03 4.90953445E-02
 8  8 4.02988770E-04-1.37924756E-01 2.71681048E-01 1.60239864E-02-4.61591142E-02
 8  9 8.00052502E-10 1.74409900E-01-2.00441413E-04 1.60750796E-02 5.55316793E-10
 8 10 1.03250958E-02 2.68203744E-03-1.41688538E-02-4.86694414E-04 2.72793652E-11
 8 11-5.76298015E-11-1.16369811E-01 2.27167003E-01-5.12720587E-02 5.07923820E-02
 8 12-1.45650500E-10 1.46147424E-01-1.33499143E-02-9.02994703E-03-8.22364685E-11
 8 13 6.25113383E-03 2.91388951E-03-1.14118629E-02-3.46376475E-03-1.46482595E-10
 8 14 1.21004255E-11 6.69694082E-02-6.68741773E-04 5.19500549E-02-1.39944933E-03
 8 15-4.01526435E-02 8.01291192E-02-9.57470656E-02-1.52071943E-02-3.66875308E-10
 8 16 6.07046456E-02-2.63059465E-02-1.25185382E-03-4.62586047E-10 1.10913579E-03
 8 17 2.71062247E-03-3.95608690E-03 7.54775629E-03 7.20074142E-11 1.09447382E-11
 8 18 2.26737439E-02 3.24859170E-03 4.20949297E-02-9.14210437E-02-2.74909966E-02
 8 19-7.89265470E-04 2.24525180E-10-9.00631380E-02-1.62834107E-02 4.40876970E-03
 8 20 3.26648390E-10-2.26055918E-04-4.83115970E-03 2.81171174E-03-1.67858198E-03
 8 21 3.10414082E-11-6.45503965E-12-3.73820932E-02-6.55953347E-04-3.01292155E-02
 8 22 1.35622569E-03
 9  1-1.19219711E-01 2.34032367E-01 7.64597521E-02-4.04393705E-02-3.74096542E-11
 9  2 1.87566675E-01 1.57548061E-02 2.37572662E-03-2.85593964E-11 8.29340639E-03
 9  3 3.38060904E-03-1.21173669E-02-4.11636137E-03-1.57204482E-10-1.03660866E-10
 9  4-1.18027970E-01 2.34151099E-01-7.56498866E-02 5.27265150E-02-1.09702304E-09
 9  5 1.32354946E-01-1.07983602E-02-2.20781621E-02-6.80801382E-10 2.12785630E-03
 9  6 3.34098285E-03-1.07568651E-02-5.72836214E-03-7.90171937E-11-2.38087851E-10
 9  7 6.08471657E-02 2.61453758E-03 5.89491635E-02 9.05322441E-03 5.54782002E-02
 9  8-3.82080085E-03 9.94161190E-03-2.01608854E-02-1.41723843E-01 1.10375226E-03
 9  9 3.59318800E-10-1.69902024E-02-5.74910815E-02-2.40750640E-03-1.65405195E-10
 9 10 5.81007343E-04 3.95207034E-04 8.41021686E-04 9.08778850E-03 6.79280171E-11
 9 11 1.51405068E-11 1.08704217E-01-2.15770897E-01-3.36963224E-02-5.26028678E-02
 9 12 8.96941054E-10-1.20793451E-01-9.94885418E-03 2.67814294E-02 7.73418446E-10
 9 13-1.71512786E-03-4.72779767E-03 1.00168163E-02-2.24541980E-03 7.58794052E-11
 9 14 2.17148065E-11-4.44918261E-03 1.28604068E-03-5.19016946E-02 6.99272928E-03
 9 15 7.34781691E-02-1.49575948E-01 1.10706783E-01 2.53618313E-02 5.69388878E-10
 9 16-1.21731331E-01 3.52053164E-02-3.85539839E-03 5.11162912E-10-8.06600822E-04
 9 17-4.53576096E-03 7.18094265E-03-8.28625856E-03-1.11479662E-10-3.83193473E-11
 9 18-4.31394012E-02-1.48351508E-03-4.95235976E-02 1.08071262E-01 7.22195657E-02
 9 19-8.66701408E-03-6.31846423E-10 1.17794617E-01 3.45721692E-02-6.78949699E-03
 9 20-6.57930326E-10-1.08696221E-03 7.00086914E-03-3.41452503E-03 3.25111422E-03
 9 21-6.70578721E-11 6.55253740E-12 5.73954948E-02 3.82477351E-03 4.47713053E-02
 9 22 1.89265230E-03
10  1-9.97498541E-02 1.99407481E-01 4.56064824E-03-2.15083463E-02-9.83422928E-11
10  2 1.66591566E-01-5.74742094E-03 4.25706397E-03-2.04535593E-10 2.94011719E-03
10  3 5.30331414E-03-9.60927199E-03 4.90394009E-04 1.15761027E-11-8.06887623E-11
10  4-5.68386451E-03 1.28409660E-02-1.62684624E-01 9.36431890E-03 2.23520558E-10
10  5-7.47129075E-03-4.36608331E-02-1.00186779E-03 2.55506945E-11-2.86894279E-03
10  6-2.65457649E-04 9.93530191E-05-1.12594137E-02-9.49076056E-11-4.99735711E-11
10  7 6.30443100E-02 9.92486776E-03 7.31665000E-02 1.70245357E-02 1.49396976E-04
10  8 2.55195693E-05 1.05768528E-01-2.15860747E-01-1.00707179E-02 3.56278859E-02
10  9 5.45169448E-10-1.61433620E-01-1.15778744E-02-1.52677247E-02 4.42436328E-10
10 10 2.85850972E-03-5.30979263E-03 9.31063384E-03 1.51545765E-03 3.81661070E-11
10 11 3.94905959E-11 4.29444091E-03-8.13500168E-03 1.80581100E-01 1.94436483E-02
10 12 5.59473426E-10-1.51911107E-04 4.73639323E-02 9.53782051E-03 2.98996617E-10
10 13-1.05270911E-03 1.44438208E-03 2.72905416E-04 1.32026507E-02 1.12047820E-11
10 14 2.33796119E-11-6.11530533E-02-3.42181788E-03-6.21610327E-03-2.82523392E-03
10 15-1.17413103E-01 2.47847622E-01-9.35594449E-03-1.92606667E-03-5.92305910E-10
10 16 1.70909755E-01-1.36916219E-02 2.81124011E-02-5.17821758E-10-4.01091974E-03
10 17 6.44058465E-03-1.17518850E-02 1.60644133E-03-6.85643477E-11 4.61708121E-11
10 18 8.76823256E-02 1.20642600E-02 5.27943571E-02-1.18009517E-01-2.09686188E-01
10 19 7.88033945E-02 3.31703826E-10-1.43723086E-01-1.00670334E-01 3.09910561E-02
10 20 2.51347488E-10 3.47278740E-03-1.28221103E-02 3.21660727E-03-8.64090075E-03
10 21 1.48103866E-10-2.70554269E-11-9.75528584E-02-1.52000628E-02-9.65992336E-02
10 22-1.85701908E-02
11  1 6.87112063E-02-1.39156623E-01 5.04726343E-02-1.45875871E-03 2.18316053E-10
11  2-1.30950290E-01 1.89548287E-02-2.46040644E-03 2.60818333E-10-2.11506942E-04
11  3-5.34720198E-03 6.33546656E-03-3.54386162E-03-8.79835446E-11 4.82888667E-11
11  4-3.42846923E-02 6.89779294E-02 1.14376385E-01 1.35609660E-02-8.88520172E-10
11  5 6.80892141E-02 3.16050358E-02-3.15961116E-03-5.85148508E-10-8.36029566E-04
11  6 2.78644104E-03-3.14701996E-03 8.60561425E-03 6.67619456E-11-4.40134459E-11
11  7-5.53940536E-02-1.66348487E-02-7.21783879E-02-2.19832864E-02 2.02945098E-02
11  8 7.92313403E-04-5.50421731E-02 1.15521090E-01-1.11138371E-01 3.41590387E-02
11  9-4.45565749E-11 8.18249100E-02-3.29544548E-02 2.45381273E-02-3.72431783E-10
11 10-3.53969433E-03 4.84668692E-03-4.37460370E-03 8.45678046E-03-2.64311707E-12
11 11-1.90855394E-11 8.90591904E-02-1.81356856E-01-5.95318198E-02 6.29534651E-02
11 12 3.25187391E-10-1.55496326E-01-3.36335425E-02 3.24584862E-02 4.41560491E-10
11 13 4.13933980E-03-6.51454045E-03 7.22730580E-03-5.00069966E-04 9.92044725E-11
11 14-2.89959772E-12 6.29808232E-02 1.95098101E-02-1.03361130E-01-3.70791461E-02
11 15-5.63040674E-02 1.20599023E-01 1.64222134E-01 1.74090157E-01-2.72853227E-11
11 16 9.95175411E-02 2.39710393E-02 5.07232511E-02 3.44393828E-10 2.83048882E-03
11 17 8.00553187E-04-6.89626159E-03-5.73194221E-03-9.79614112E-11-7.06296246E-11
11 18 1.18434133E-01 4.90023064E-02 1.56520363E-02-3.46552489E-02-1.11301309E-01
11 19 2.71650259E-01 2.32130569E-10-5.52147611E-02-4.41810425E-02 1.38860071E-01
11 20-7.36215544E-11 3.38961031E-03-1.07980544E-02 1.47093732E-03-3.90992451E-03
11 21 2.75685020E-12-7.94116906E-11 1.94102644E-02 2.30451735E-04-1.55980650E-01
11 22-4.08758562E-02
12  1-7.66070332E-02 1.55806375E-01-9.01039797E-02 7.38824123E-02 3.26920345E-09
12  2 1.56527579E-01-3.06799343E-02 1.95736128E-02 2.40851082E-09-5.08065035E-04
12  3 7.60006020E-03-7.09098675E-03 8.58369233E-03 1.91716484E-10-4.24433482E-11
12  4 8.54659717E-02-1.74998162E-01-8.05837034E-02 8.04346628E-02 3.65486171E-09
12  5-1.59954820E-01-1.96352509E-02 3.96227090E-02 2.85283006E-09 4.26855265E-03
12  6-6.82762680E-03 6.99888187E-03-3.82219987E-03-2.06429488E-10 1.65653459E-10
12  7 1.00324985E-01 4.21484765E-02 8.39346709E-02 2.90986576E-02-1.08388851E-01
12  8-3.67724623E-02-2.63677460E-02 5.25448835E-02 1.51214133E-01 1.09882642E-01
12  9-2.53334501E-09 5.06865107E-02 4.37004912E-02 4.39209643E-02-1.40938853E-09
12 10-1.33825456E-03 2.56409561E-03-2.68417793E-03-8.35365432E-03-3.11151544E-10
12 11 5.87993677E-11-1.04658884E-02 2.12986149E-02-7.82168236E-02 1.21582879E-01
12 12-5.22780351E-09 1.14517123E-02-1.89797467E-02 3.07794795E-02-3.71939282E-09
12 13-4.54823591E-03 5.63759038E-04-5.84609840E-04-4.59891634E-03-1.17458681E-11
12 14-1.89667357E-10 7.42513262E-02 3.39769951E-02-5.18961558E-02-3.18670127E-02
12 15 1.05404051E-02-2.78402604E-02-1.04474253E-01 1.64601766E-01-2.06228262E-09
12 16 3.80531065E-03-2.87554907E-02 4.70954994E-02-1.60914454E-09 2.58479226E-03
12 17 2.03622179E-03 2.18698721E-03 9.52440578E-03 4.92084241E-10-5.49454633E-11
12 18 7.26304816E-02 3.75917898E-02-6.23913082E-03 1.25174256E-02 2.54905526E-01
12 19 1.37361577E-01 2.46487424E-09 3.92009096E-02 1.23318788E-01 8.47351833E-02
12 20 2.78201654E-09 2.63094988E-03 3.26280423E-03-9.20734571E-04 9.15002477E-03
12 21-1.00637658E-10-6.52582072E-11 1.52652387E-01 4.50501585E-02-3.90882539E-02
12 22-7.39732153E-03
13  1 1.14480879E-02-2.23371840E-02-7.04876472E-03-1.01341207E-01-5.33085260E-10
13  2-1.92061515E-02-9.14506107E-03-3.96880937E-02-1.89190494E-10 1.72676801E-05
13  3-1.94091426E-03 1.42603467E-03-3.61288522E-03 1.22357910E-10-1.13183254E-10
13  4-4.41297568E-02 8.87992758E-02-4.25208603E-02-1.61661833E-01 4.51627468E-10
13  5 1.02933560E-01 2.23317160E-03-5.32760461E-02 3.07729091E-10-8.45802869E-04
13  6 4.38914988E-03-3.74575754E-03-4.90002802E-03-1.11589508E-10 8.64545992E-12
13  7-5.97083518E-02-2.77198995E-02 1.34954789E-02 1.13200682E-03 1.16032469E-01
13  8 5.37406561E-02 6.20284484E-02-1.27165089E-01 6.95417809E-02-1.91832403E-01
13  9-4.86776839E-11-1.48335608E-01 2.59212446E-02-6.53842189E-02-1.72322484E-10
13 10 4.22616854E-03-9.05021004E-03 5.34683741E-03-2.37744887E-03 3.77519002E-11
13 11-1.14005143E-11-5.84027464E-02 1.18096026E-01-3.86340036E-02-1.05759338E-01
13 12 4.13317520E-10 1.25033716E-01-1.14290436E-02-4.28737572E-02 3.56031166E-10
13 13-4.91375823E-03 6.38433741E-03-4.60185522E-03 1.27247612E-03-6.77324041E-11
13 14 2.17851151E-11-1.51397354E-01-7.22135639E-02 1.02735649E-01 4.31223716E-02
13 15 1.02555849E-02-2.47306626E-02-3.78316334E-02 9.12920024E-02 2.38653662E-10
13 16 5.63020813E-03 3.28813019E-03 1.26468218E-02 2.68557214E-10 3.57710447E-03
13 17 4.47742031E-04 1.61118285E-03 1.38223243E-02-2.02308864E-11-6.22684083E-11
13 18 3.29241448E-02 1.97213685E-02 2.21217100E-03-3.47247837E-03 1.98728976E-01
13 19 2.41567886E-01-9.86349000E-10-1.54326612E-02 1.11310052E-01 1.40279673E-01
13 20-6.81716422E-10 6.51622357E-03-3.13081729E-03 3.28377985E-04 1.14287605E-02
13 21-1.39168141E-10-9.34780813E-11 1.61232068E-01 5.26332892E-02-1.07333270E-01
13 22-3.11639487E-02
14  1-3.84498036E-02 7.82334976E-02-1.12541491E-01 1.24154826E-01 2.19130835E-09
14  2 1.10678086E-01-2.93199188E-02 3.82661974E-02 2.04106613E-09-7.27463165E-04
14  3 7.30167459E-03-3.47861826E-03 8.87191699E-03 3.11207343E-11 3.91116868E-11
14  4 5.73036187E-02-1.16099871E-01 7.72523578E-02 6.51650097E-02 1.32009605E-09
14  5-1.51026053E-01 1.96755439E-02 1.40886021E-02 1.30396002E-09 6.38477084E-03
14  6-6.39107231E-03 4.56405125E-03 1.28372673E-03-1.39975285E-10 7.32178060E-11
14  7 9.91362990E-02 4.78098821E-02 5.73593147E-02 2.62245072E-02-8.32015316E-02
14  8-3.80046717E-02-3.00402846E-02 6.59755706E-02 3.24185570E-02-7.87047276E-02
14  9-3.13936942E-09 5.39989098E-02-2.47444801E-02-2.62900867E-02-2.52354858E-09
14 10-6.16566976E-03 1.11406735E-03-1.57653313E-03-8.37001132E-03-2.16799879E-10
14 11 4.70239549E-12-2.49926078E-02 4.72663951E-02-1.55049315E-01-1.90213753E-01
14 12-2.98514382E-09 9.49155693E-02-4.70764553E-02-5.27236298E-02-1.82072127E-09
14 13 1.88716972E-03 3.19647685E-03-2.47037594E-03-1.25015447E-02 7.02713109E-11
14 14-1.31446456E-10-1.30185363E-02-1.11418538E-02 1.13388904E-01 5.86013473E-02
14 15 3.80718469E-02-7.51170848E-02 2.94546107E-01-1.16521049E-01-4.74455350E-10
14 16-1.36445897E-01 7.26795040E-02-4.90562009E-02-1.65096375E-10 1.39318434E-02
14 17-1.54076741E-02-5.78578735E-05-7.73643225E-03 7.17331886E-11 6.82705416E-11
14 18-1.14117697E-01-5.44212607E-02-1.08481010E-02 2.68544277E-02-2.16565852E-01
14 19 2.04769689E-01 2.40829057E-09 1.51653801E-02-9.93830006E-02 1.12855782E-01
14 20 1.78194979E-09 2.70802021E-03-1.30110186E-02 5.92055786E-04 3.44272907E-05
14 21 7.44967140E-11-3.32631264E-11-1.97241377E-02-1.43594288E-02-1.24657577E-01
14 22-5.06159480E-02
15  1 1.44302769E-02-3.08063435E-02 2.34534226E-01 1.19407342E-01-4.66707276E-09
15  2-4.79123060E-02 9.60682925E-02 6.39136887E-02-5.22330165E-09-2.32467844E-03
15  3-1.57673389E-03 9.08105367E-04-9.02269901E-03-5.51828730E-10 2.80842970E-10
15  4-1.60869018E-02 3.79322664E-02 1.13016529E-02 2.36417655E-01-6.52143199E-09
15  5 2.81026932E-03-3.83557388E-03 7.47329970E-02-6.00596295E-09-4.81820050E-03
15  6-3.42755596E-03-4.32602564E-04-1.39632997E-03 7.23404447E-10-2.06185267E-10
15  7 4.44640709E-02 1.89687653E-02-1.52985294E-01-7.49354331E-02-1.09186464E-01
15  8-6.66553727E-02 2.82418978E-02-6.16540282E-02-2.23753873E-01 6.62460153E-02
15  9 9.75288868E-09-4.51845452E-02-7.71459959E-02 1.88654078E-02 7.91448938E-09
15 10 5.22618044E-03-1.50858866E-04 1.68918841E-03 3.82557414E-03 5.96753246E-10
15 11-1.16035133E-10-2.46537423E-02 4.75640143E-02 2.39859173E-01-1.41745040E-01
15 12 9.97027964E-09 9.02512325E-02 8.26666123E-02-4.77160752E-02 6.30483147E-09
15 13-5.02155242E-03 9.45486468E-03-2.18631474E-03 9.25537458E-03-3.02796340E-10
15 14 3.61897498E-10 1.26679262E-02 1.33534919E-02 1.10882370E-01 6.29380162E-02
15 15-5.45814777E-03 1.24826452E-02-1.24671978E-01-7.84533432E-02 1.99415805E-09
15 16 1.14201860E-02-1.44926143E-02-3.84106335E-02 6.95468252E-10-4.03359181E-03
15 17 6.53268204E-04 1.27828238E-03 1.55377985E-02-6.34248962E-10-8.52331537E-11
15 18-3.18716963E-02-1.49998853E-02 9.63991651E-03-2.19855287E-02 1.51222580E-01
15 19 1.18839856E-01-5.03997845E-09-4.08000104E-02 8.31542950E-02 7.15316517E-02
15 20-4.16464365E-09 8.88110011E-03-4.21735845E-03-7.65656104E-05 1.10966079E-02
15 21-7.20261663E-11-6.20135998E-11 1.08804597E-01 5.31791891E-02-6.27933124E-02
15 22-2.35888493E-02
16  1-6.24653757E-03 1.07278303E-02-8.48469875E-02 2.53996255E-01-4.20518140E-09
16  2 3.82720810E-02-1.88788148E-02 1.00229620E-01-3.53487788E-09-5.10194651E-03
16  3 1.21235672E-02-9.44347534E-04 5.28719797E-03-3.84517040E-10 2.59759092E-10
16  4 2.59552698E-03-5.77272803E-03 2.40713825E-01 1.82000702E-02-5.17672636E-09
16  5 6.84959373E-03 7.96390344E-02 1.03119250E-02-4.31527490E-09 1.00156320E-03
16  6 5.18164973E-04-8.97190933E-05 3.66554156E-03 4.60857245E-10-9.02956792E-11
16  7 1.50072443E-01 8.90101782E-02-1.53352074E-02-4.62928266E-03-1.07367520E-02
16  8-4.80958613E-03 1.01164801E-02-1.69976475E-02-1.29850419E-01-2.30505878E-01
16  9 4.90764114E-09-5.51523705E-02-3.59706393E-02-9.16749620E-02 3.35164981E-09
16 10 2.75416515E-03-9.53817329E-03 1.31584360E-03 4.95240784E-03 4.70146873E-10
16 11-1.49693281E-10 1.63451983E-02-3.63741584E-02-5.05022407E-02-7.72632107E-02
16 12 7.83701024E-09-2.82077896E-02-2.45907172E-02-2.81727778E-02 5.48179836E-09
16 13 1.36185464E-04 2.62970948E-03 7.53838394E-04 6.43660237E-03-5.63351852E-11
16 14 2.71715834E-10-1.35082694E-01-7.47629933E-02 2.79435796E-02 2.54489081E-02
16 15-2.54973849E-02 4.92502541E-02-4.49222468E-02 2.49529884E-01 3.61667434E-09
16 16 1.19898807E-01 1.41810860E-02 1.00129730E-01 2.51903533E-09-1.76093411E-02
16 17 2.31812880E-02-9.82149443E-04-3.37821713E-03-4.38044465E-10-2.35076230E-10
16 18 1.82043032E-01 1.12598113E-01 1.28213100E-02-2.78102903E-02 4.95947396E-02
16 19-1.75013148E-01-2.33988459E-09-6.32116929E-02 2.68727180E-02-1.14031239E-01
16 20-2.74274786E-09-8.56340308E-03 1.35184396E-02 6.92272360E-04-1.01921159E-02
16 21-1.56276931E-10 6.52980536E-11-5.61150169E-02-2.57528445E-02 1.06127807E-01
16 22 6.09319785E-02
17  1-1.48886470E-02 3.53086857E-02 2.95663204E-01-1.26540666E-01 2.85430450E-08
17  2 2.34022362E-02 1.05339558E-01-4.71944015E-02 2.20152890E-08-6.18092579E-06
17  3-1.01347372E-02-1.96824872E-04-1.28669105E-02 8.02713592E-10-5.61838680E-10
17  4 2.98064170E-03-2.99892396E-03-2.71002439E-01 1.90067404E-01 1.72241640E-08
17  5-5.34002535E-02-7.75877293E-02 6.10918285E-02 1.18509086E-08 6.51316774E-03
17  6-1.33546141E-02 7.79662863E-04-1.40472902E-02-1.70829551E-09 5.33674834E-10
17  7-6.99141506E-02-5.68879727E-02-1.07559105E-01-8.01657363E-02-1.21509062E-01
17  8-8.97300938E-02 7.61269256E-03-1.58706970E-02 1.89566004E-01-5.90966948E-02
17  9-1.50179530E-08-2.68158675E-02 4.67793240E-02-2.30639342E-02-1.02407389E-08
17 10 5.99188942E-03-7.01503068E-03 5.09944815E-04-1.52923391E-02-1.91080590E-09
17 11 3.28771826E-10-1.71119829E-02 3.39221401E-02-2.55415554E-01-9.09875180E-02
17 12-3.03815402E-08 8.31645434E-02-5.94675398E-02-2.34823313E-02-2.06020491E-08
17 13-7.10345407E-03 7.39758056E-03-9.79567478E-04-1.04484679E-02-2.14805139E-10
17 14-1.12761576E-09-4.92286068E-02-3.62852277E-02 6.75693854E-02 4.92986622E-02
17 15 1.76069305E-02-4.08423582E-02 1.42346892E-01 2.05031432E-01-1.96500740E-08