 $contrl scftyp=reks runtyp=gradient dfttyp=bhhlyp icharg=0
         maxit=500 mult=1
 $end
 $dft sg1=.true. $end
 $scf
 nconv=6
 npunch=2
 $end
$reks
 rexType=2
 rexTarget=1
wpps=0.95
rexShift=0.7
rexDIIS=no
$end
 $basis gbasis=n31 ngauss=6 ndfunc=1 $end
 $guess guess=moread norb=106 $end
 $system timlim=999999100 mwords=700 $end
 $data
TME planar S0 state
 c1
C   6.0      0.000002770936        0.000001762038        0.747199678939
C   6.0     -0.000002961758        0.000001586762       -0.747197984052
C   6.0     -0.854781617513        0.854988517751        1.402711722303
C   6.0      0.854795741139       -0.854988041091        1.402699235948
C   6.0      0.854979863712        0.854788205345       -1.402711695365
C   6.0     -0.854993904980       -0.854787901955       -1.402699077415
H   1.0     -0.886738798126        0.886957279934        2.479458193600
H   1.0     -1.512651098508        1.513009435074        0.863003306012
H   1.0     -0.886970966769       -0.886753612486       -2.479444880716
H   1.0     -1.513011194156       -1.512654275847       -0.862981605960
H   1.0      0.886944104720        0.886748935182       -2.479458134825
H   1.0      1.513003124829        1.512656647667       -0.863004347236
H   1.0      0.886765923836       -0.886961547582        2.479445051112
H   1.0      1.512659012639       -1.513006990792        0.862980537656
 $end
 $VEC   
 1  1 7.02799450E-01 2.93526159E-02-3.94559323E-10-2.83086270E-09-1.57271605E-04
 1  2-1.18163665E-02-2.44354509E-08 3.03358001E-08-1.02898881E-03-4.27276088E-03
 1  3-4.27263483E-03-4.55080795E-03-2.89014771E-04-4.55252117E-09 3.28979450E-09
 1  4 7.01324065E-01 2.92921381E-02 1.22495918E-09-1.53481006E-09 1.56851054E-04
 1  5-1.17916977E-02 7.31144007E-09 8.83641004E-09 1.03380904E-03-4.26368248E-03
 1  6-4.26378936E-03-4.54243042E-03 2.88264567E-04-3.43983994E-09-2.41681247E-09
 1  7 2.35204079E-02 4.76297240E-04-1.40766117E-04 1.40798591E-04 2.61325308E-04
 1  8 4.05665902E-03 1.14528441E-03-1.14556249E-03-1.76368155E-03-3.86845143E-04
 1  9-3.86856406E-04-3.49218348E-04 2.53171880E-05 5.73659683E-05-5.73788173E-05
 1 10 2.35203485E-02 4.76293910E-04 1.40767244E-04-1.40798104E-04 2.61322079E-04
 1 11 4.05670067E-03-1.14531627E-03 1.14557538E-03-1.76369257E-03-3.86846248E-04
 1 12-3.86857993E-04-3.49214772E-04 2.53179685E-05-5.73648924E-05 5.73782964E-05
 1 13 2.34697907E-02 4.74217185E-04 1.40514130E-04 1.40481119E-04-2.61355079E-04
 1 14 4.05255352E-03-1.14517902E-03-1.14492268E-03 1.76375517E-03-3.86180276E-04
 1 15-3.86171324E-04-3.48478045E-04-2.48166191E-05 5.71746414E-05 5.71605210E-05
 1 16 2.34697280E-02 4.74215438E-04-1.40516327E-04-1.40481685E-04-2.61351711E-04
 1 17 4.05255713E-03 1.14520267E-03 1.14492890E-03 1.76374443E-03-3.86180827E-04
 1 18-3.86172137E-04-3.48474400E-04-2.48181507E-05-5.71738386E-05-5.71607891E-05
 1 19-1.42175656E-05 5.00267685E-04-2.71336502E-04-3.48930689E-05-1.40647515E-05
 1 20 5.01086070E-04-2.71535362E-04-3.40436980E-05-1.40647282E-05 5.01082972E-04
 1 21-2.71534608E-04-3.40460048E-05-1.42176012E-05 5.00278333E-04-2.71339301E-04
 1 22-3.48957833E-05
 2  1-7.01271905E-01-2.87121472E-02 2.08247870E-09-2.21361691E-10 1.69363286E-04
 2  2 1.12054972E-02-3.52015801E-08 2.26902656E-08-1.25709120E-03 4.28782839E-03
 2  3 4.28766877E-03 3.95682804E-03 3.58424051E-04 3.88496380E-10-3.09823025E-09
 2  4 7.02747147E-01 2.87738189E-02 1.30761837E-09-2.28489237E-09 1.69714084E-04
 2  5-1.12304841E-02 1.12537839E-08 1.07146654E-08-1.25495597E-03-4.29664731E-03
 2  6-4.29677719E-03-3.96637505E-03 3.59024475E-04 5.94510158E-10-5.29273031E-09
 2  7-2.48642631E-02-1.00246423E-03 1.34400500E-04-1.34430356E-04 1.61781367E-05
 2  8-2.21186944E-03-3.61750174E-04 3.61835410E-04-2.03715792E-04 3.23605377E-04
 2  9 3.23697201E-04 3.65019391E-04-2.23486756E-04-1.00937834E-04 1.00962547E-04
 2 10-2.48642153E-02-1.00247034E-03-1.34400348E-04 1.34430499E-04 1.61811415E-05
 2 11-2.21181237E-03 3.61736849E-04-3.61820698E-04-2.03760233E-04 3.23606454E-04
 2 12 3.23697696E-04 3.65018757E-04-2.23489564E-04 1.00939406E-04-1.00961767E-04
 2 13 2.49152829E-02 1.00352050E-03 1.34728196E-04 1.34695133E-04 1.56211585E-05
 2 14 2.22041438E-03-3.64247924E-04-3.64161453E-04-1.99946974E-04-3.24523550E-04
 2 15-3.24435484E-04-3.65766542E-04-2.23536123E-04 1.01080102E-04 1.01057395E-04
 2 16 2.49152225E-02 1.00351985E-03-1.34726299E-04-1.34693757E-04 1.56241333E-05
 2 17 2.22044313E-03 3.64248946E-04 3.64165841E-04-1.99948743E-04-3.24525785E-04
 2 18-3.24436013E-04-3.65765405E-04-2.23536934E-04-1.01079464E-04-1.01055029E-04
 2 19 9.73243154E-05 4.70723015E-04-1.03426005E-04 2.64178728E-04-9.73517242E-05
 2 20-4.69643463E-04 1.02849128E-04-2.64274556E-04-9.73509662E-05-4.69641676E-04
 2 21 1.02848878E-04-2.64267798E-04 9.73249572E-05 4.70737827E-04-1.03429864E-04
 2 22 2.64175657E-04
 3  1-5.13590112E-05-2.44961524E-06-2.92752638E-04 2.92817917E-04-2.67114976E-07
 3  2 5.66564734E-06 1.97277505E-03-1.97321670E-03 2.34253699E-06-6.20513319E-08
 3  3-6.16918082E-08-1.97803635E-07 2.95198527E-07-6.10051869E-05 6.10287168E-05
 3  4 2.12027332E-06-2.20227689E-07-2.19404626E-05 2.20518651E-05-6.74865644E-08
 3  5 4.84379227E-07-8.02656435E-05 7.96410250E-05 1.43358404E-06-7.44210919E-08
 3  6-7.46846407E-08 1.29936080E-07-6.38924737E-08 2.48536769E-05-2.48857837E-05
 3  7-7.02054918E-01-2.88532665E-02-6.98027729E-05 6.98311491E-05-9.68467133E-07
 3  8 9.19878583E-03 6.24382311E-04-6.24539124E-04-3.71375465E-04 4.65396903E-03
 3  9 4.65389693E-03 4.54763423E-03 1.62227645E-04 3.28658331E-05-3.28794881E-05
 3 10 7.03526224E-01 2.89132750E-02-6.99358863E-05 6.99634271E-05 7.81046858E-07
 3 11-9.21793176E-03 6.25421523E-04-6.25574549E-04 3.71857889E-04-4.66359185E-03
 3 12-4.66351994E-03-4.55699462E-03-1.62863347E-04 3.30399315E-05-3.30514788E-05
 3 13-1.39211669E-04-5.71044049E-06-1.72535419E-05 1.72798929E-05-3.77430359E-08
 3 14 2.02016440E-06 2.47711415E-05-2.55733274E-05-1.13681446E-07-5.58466880E-07
 3 15 2.43398633E-06 8.46378908E-07 2.55732744E-10-6.86624446E-06 6.87064332E-06
 3 16 1.17251577E-04 4.82215309E-06-1.72544845E-05 1.72798794E-05-3.59419545E-08
 3 17-1.26172954E-06 2.53844949E-05-2.49613212E-05-2.23464760E-07 7.32852439E-07
 3 18-2.25941254E-06-8.15056815E-07 6.19362073E-08-6.85353936E-06 6.88332195E-06
 3 19 1.45839966E-04-1.55937820E-03 1.83592878E-04-1.37963337E-03-3.70161913E-08
 3 20 2.09759920E-07-6.15244043E-08 5.40905937E-07 1.93005893E-08-3.68490792E-07
 3 21 6.78765637E-09 1.57469213E-08-1.46239575E-04 1.56266425E-03-1.83974505E-04
 3 22 1.38293189E-03
 4  1 1.05513072E-06-1.08909314E-07 2.20521549E-05 2.19403663E-05 3.31350608E-08
 4  2 2.72445533E-07 7.96028437E-05 8.03044968E-05-7.41753359E-07-3.68545195E-08
 4  3-3.71393461E-08 6.43035951E-08 3.05879437E-08 2.48834861E-05 2.48556756E-05
 4  4-2.47019572E-05-1.18014219E-06 2.92828086E-04 2.92741940E-04 1.31858487E-07
 4  5 2.76187827E-06-1.97321367E-03-1.97278370E-03-1.20759125E-06-3.25305466E-08
 4  6-3.20315379E-08-9.92844335E-08-1.41752340E-07-6.10286591E-05-6.10032908E-05
 4  7 1.22418164E-04 5.03399691E-06 1.72808590E-05 1.72517553E-05 1.81701934E-08
 4  8-1.48176227E-06-2.51336155E-05-2.52098467E-05 1.55658703E-07-2.30087738E-06
 4  9 6.91495475E-07-8.20198978E-07-4.46980370E-08-6.87822007E-06-6.85891377E-06
 4 10-1.34023042E-04-5.50553618E-06 1.72818588E-05 1.72516266E-05 1.80125310E-08
 4 11 1.87857214E-06-2.54441509E-05-2.49003429E-05 1.98292715E-08 2.39134066E-06
 4 12-6.00774961E-07 8.40864091E-07 1.38537355E-08-6.87259450E-06-6.86451127E-06
 4 13-7.02436579E-01-2.88688382E-02 6.98590949E-05 6.98428110E-05 9.20174664E-07
 4 14 9.20370436E-03-6.24782872E-04-6.24631921E-04 3.71516538E-04 4.65640608E-03
 4 15 4.65646429E-03 4.55006773E-03-1.62392561E-04 3.29213392E-05 3.29149400E-05
 4 16 7.03145155E-01 2.88977337E-02 6.99236365E-05 6.99064109E-05-8.31445349E-07
 4 17-9.21303241E-03-6.25333391E-04-6.25178551E-04-3.71718764E-04-4.66103009E-03
 4 18-4.66108889E-03-4.55456564E-03 1.62697336E-04 3.30054605E-05 3.29970218E-05
 4 19-3.16440194E-08 2.42688725E-07-4.61209791E-08 3.90214378E-07-1.46133553E-04
 4 20 1.56182643E-03-1.83876410E-04 1.38206529E-03 1.45946053E-04-1.56021809E-03
 4 21 1.83690141E-04-1.38049726E-03 2.17324717E-08-3.26826402E-07 2.07374255E-08
 4 22-1.13537205E-07
 5  1-3.69469146E-02-1.56177705E-03 2.39923256E-07-2.23949354E-07-2.22888610E-04
 5  2 3.62921315E-03-1.55199882E-06 1.63410368E-06 2.35880821E-03 6.74773310E-06
 5  3 6.68297291E-06-2.12320360E-04 1.64038876E-04 5.31437436E-08-4.13615864E-08
 5  4 3.41607420E-02 1.41132653E-03 1.22170760E-07 8.67781063E-08-2.11872156E-04
 5  5-3.28925872E-03-6.55109832E-07-8.07412789E-07 2.31037498E-03-1.39913085E-05
 5  6-1.40502749E-05 2.08724567E-04 1.43725373E-04-3.74493349E-08-4.30923698E-09
 5  7 5.16935036E-01 2.10836763E-02 4.59391397E-05-4.59416586E-05-8.89797998E-05
 5  8-6.79304071E-03-5.11302866E-04 5.11405531E-04 9.03471367E-05-3.39771346E-03
 5  9-3.39762486E-03-3.26185106E-03-2.02518706E-04-5.59865842E-05 5.59980647E-05
 5 10 5.15836238E-01 2.10385218E-02-4.58172364E-05 4.58422124E-05-8.89811575E-05
 5 11-6.77849008E-03 5.10268797E-04-5.10409666E-04 8.97149582E-05-3.39044263E-03
 5 12-3.39035845E-03-3.25474399E-03-2.02264689E-04 5.59330717E-05-5.59522369E-05
 5 13-4.75638752E-01-1.93986678E-02 4.21794031E-05 4.21476692E-05-8.56581379E-05
 5 14 6.27357219E-03-5.00968831E-04-5.00815612E-04 6.61118929E-05 3.12784693E-03
 5 15 3.12791302E-03 2.99552079E-03-1.82702093E-04 5.06868307E-05 5.06671094E-05
 5 16-4.75149868E-01-1.93785800E-02-4.21032098E-05-4.21240845E-05-8.56587832E-05
 5 17 6.26702888E-03 5.00457741E-04 5.00387944E-04 6.58067257E-05 3.12461675E-03
 5 18 3.12468982E-03 2.99236368E-03-1.82589292E-04-5.06558638E-05-5.06561924E-05
 5 19-1.37418963E-04 1.16779678E-03-1.12568266E-04 9.87732170E-04 1.25287500E-04
 5 20-1.07866693E-03 1.00130657E-04-8.76634612E-04 1.25386444E-04-1.07975077E-03
 5 21 1.00258459E-04-8.77602200E-04-1.37193537E-04 1.16535845E-03-1.12281215E-04
 5 22 9.85564903E-04
 6  1-3.22683817E-02-1.76010104E-03 1.98011399E-07-2.17189534E-07-1.24244832E-04
 6  2 3.97088480E-03-1.47105737E-06 1.39672496E-06 4.89283655E-04-8.86238967E-05
 6  3-8.87194896E-05-3.46548682E-05 2.39415484E-04 3.54549064E-08-4.99164183E-08
 6  4-3.52093190E-02-1.88306248E-03-9.36664087E-08-1.27287028E-07 1.42217970E-04
 6  5 4.25677301E-03 8.45465395E-07 7.19502433E-07-6.82426869E-04-8.78491303E-05
 6  6-8.77455535E-05-5.20482066E-05-2.52134345E-04 6.81472918E-09 3.82487282E-08
 6  7 4.75949553E-01 1.94196118E-02 4.35581543E-05-4.35837034E-05-3.66256292E-05
 6  8-5.97355995E-03-1.02797612E-04 1.02846876E-04 2.88673725E-04-3.10826715E-03
 6  9-3.10817070E-03-3.07240065E-03-2.31064759E-04-6.19451767E-05 6.19681762E-05
 6 10 4.74968154E-01 1.93792806E-02-4.34720690E-05 4.34713168E-05-3.66250082E-05
 6 11-5.96055302E-03 1.01911321E-04-1.01915081E-04 2.88100674E-04-3.10177680E-03
 6 12-3.10167768E-03-3.06605488E-03-2.30839076E-04 6.19067149E-05-6.19162264E-05
 6 13 5.16702410E-01 2.10816458E-02-4.71779671E-05-4.71929460E-05 4.38399042E-05
 6 14-6.51012839E-03 1.44450882E-04 1.44456148E-04-2.94962539E-04-3.37607957E-03
 6 15-3.37617633E-03-3.32926554E-03 2.46921375E-04-6.63547428E-05-6.63527026E-05
 6 16 5.16188199E-01 2.10605159E-02 4.71501069E-05 4.71156544E-05 4.38386219E-05
 6 17-6.50323029E-03-1.43994318E-04-1.43921255E-04-2.94631102E-04-3.37268852E-03
 6 18-3.37278062E-03-3.32594686E-03 2.46804043E-04 6.63430598E-05 6.63184342E-05
 6 19-1.39510168E-04 1.01159333E-03-1.43672001E-04 1.28779204E-03-1.50205516E-04
 6 20 1.10277393E-03-1.52268348E-04 1.36331259E-03-1.50310535E-04 1.10390683E-03
 6 21-1.52399663E-04 1.36433042E-03-1.39307870E-04 1.00942203E-03-1.43418284E-04
 6 22 1.28585791E-03
 7  1-1.31346544E-01 2.52937689E-01 2.85276643E-08-1.75436277E-07-1.95042984E-02
 7  2 1.55062456E-01-2.48632695E-06 1.62880606E-06-1.77379859E-02-5.91342959E-03
 7  3-5.91004534E-03 5.72820221E-03-8.45805287E-03 2.14355392E-08 1.63645621E-07
 7  4-1.31347134E-01 2.52936516E-01-6.51871273E-08-2.16634971E-07 1.95032221E-02
 7  5 1.55079534E-01 2.48007121E-06 1.66991371E-06 1.77625680E-02-5.91062767E-03
 7  6-5.91406454E-03 5.72852434E-03 8.45813395E-03 2.53363187E-08-1.53706205E-07
 7  7-6.92412898E-02 1.33013256E-01 3.96160471E-02-3.96257594E-02-3.50483604E-02
 7  8 9.29206957E-02 6.43394479E-03-6.43537406E-03 5.12844600E-03-2.46660149E-04
 7  9-2.43504205E-04 2.00191092E-03-7.79912446E-03-2.96732663E-03 2.96809128E-03
 7 10-6.92413365E-02 1.33012961E-01-3.96164601E-02 3.96258497E-02-3.50477911E-02
 7 11 9.29250038E-02-6.43472193E-03 6.43646747E-03 5.12636610E-03-2.46646453E-04
 7 12-2.43494466E-04 2.00184083E-03-7.79925339E-03 2.96739878E-03-2.96807398E-03
 7 13-6.92415065E-02 1.33013198E-01-3.96253358E-02-3.96165646E-02 3.50484713E-02
 7 14 9.29256136E-02-6.43939967E-03-6.43788724E-03-5.13317084E-03-2.43453046E-04
 7 15-2.46590590E-04 2.00176502E-03 7.79935252E-03-2.96794527E-03-2.96732715E-03
 7 16-6.92416209E-02 1.33012966E-01 3.96257923E-02 3.96167140E-02 3.50479375E-02
 7 17 9.29303591E-02 6.44004581E-03 6.43882431E-03-5.13112076E-03-2.43460446E-04
 7 18-2.46603945E-04 2.00168353E-03 7.79948171E-03 2.96801229E-03 2.96730780E-03
 7 19 2.90184802E-02-1.31110343E-03 3.25062127E-02 6.81567889E-03 2.90181294E-02
 7 20-1.31289551E-03 3.25063744E-02 6.81858893E-03 2.90181281E-02-1.31338367E-03
 7 21 3.25064402E-02 6.81929446E-03 2.90184550E-02-1.31041476E-03 3.25061206E-02
 7 22 6.81526896E-03
 8  1-9.62877882E-02 1.92832417E-01 4.21075928E-07 6.21991189E-08 1.09685491E-01
 8  2 1.15822127E-01-2.21654610E-06 3.19915750E-06 1.68698637E-02-2.35991488E-05
 8  3-1.94914460E-05-8.79883757E-03-9.82652021E-03-1.96900408E-07 8.73571138E-08
 8  4 9.62877143E-02-1.92831144E-01 4.89871797E-07 3.58905393E-08 1.09685413E-01
 8  5-1.15833049E-01-2.14734707E-06-3.11254403E-06 1.68761507E-02 1.98662382E-05
 8  6 2.36836352E-05 8.79900924E-03-9.82669018E-03 1.91167719E-07 8.14321495E-08
 8  7-8.93993726E-02 1.71823638E-01 4.23091633E-02-4.23195796E-02-1.26716466E-02
 8  8 1.37551892E-01 6.54386901E-03-6.54577380E-03-2.98496599E-05-9.29369893E-04
 8  9-9.25472091E-04 1.88436306E-03-9.55377301E-03-1.62151012E-03 1.62194955E-03
 8 10-8.93990415E-02 1.71822440E-01-4.23092410E-02 4.23195334E-02-1.26708180E-02
 8 11 1.37557498E-01-6.54520553E-03 6.54676564E-03-3.25233210E-05-9.29350860E-04
 8 12-9.25531390E-04 1.88430953E-03-9.55385836E-03 1.62158937E-03-1.62193211E-03
 8 13 8.93991278E-02-1.71823817E-01 4.23189508E-02 4.23096293E-02-1.26714169E-02
 8 14-1.37545403E-01 6.54268845E-03 6.54159582E-03-3.11568551E-05 9.25510016E-04
 8 15 9.29319880E-04-1.88447076E-03-9.55362010E-03 1.62184799E-03 1.62153049E-03
 8 16 8.93989051E-02-1.71822818E-01-4.23190732E-02-4.23096301E-02-1.26706381E-02
 8 17-1.37551075E-01-6.54396490E-03-6.54254051E-03-3.36916286E-05 9.25500415E-04
 8 18 9.29387158E-04-1.88441624E-03-9.55370757E-03-1.62192267E-03-1.62151455E-03
 8 19 5.29890698E-02 1.16845263E-02 4.18702815E-02 6.66729292E-03-5.29890898E-02
 8 20-1.16868148E-02-4.18697212E-02-6.66529548E-03-5.29892451E-02-1.16862941E-02
 8 21-4.18700710E-02-6.66620890E-03 5.29888685E-02 1.16851558E-02 4.18698761E-02
 8 22 6.66637717E-03
 9  1-7.09224167E-08-2.93059808E-07 1.33302058E-01-1.54801040E-01-1.56380664E-06
 9  2 3.22022501E-06 2.13129671E-02-3.18813643E-02 2.88487919E-06 4.77524105E-08
 9  3-1.54332617E-08-1.67036466E-07-1.30447755E-07 9.77081679E-03-6.78143376E-03
 9  4-3.88207081E-08-3.40464897E-07-5.79357430E-02-9.76614454E-02 1.10051865E-06
 9  5 3.32990027E-06-4.58916895E-03-2.41433704E-02 1.83510759E-07 5.81158519E-10
 9  6-4.39699931E-08-5.98033731E-08 4.71930671E-08 7.23920373E-03 1.69911789E-03
 9  7 1.26325755E-01-2.47843705E-01 1.08031923E-03-6.46422091E-03 2.20509624E-02
 9  8-2.20681116E-01 8.97921849E-03-1.04306155E-02 4.65922224E-03 4.20269501E-03
 9  9 4.67053518E-03-7.32349984E-03 8.60010372E-03-7.60404646E-04 1.31797684E-03
 9 10-1.26325631E-01 2.47843956E-01 1.08014836E-03-6.46425747E-03-2.20509217E-02
 9 11 2.20676639E-01 8.98140082E-03-1.04328670E-02-4.66032269E-03-4.20269604E-03
 9 12-4.67053125E-03 7.32364291E-03-8.59998322E-03-7.60301688E-04 1.31804869E-03
 9 13 6.82227801E-02-1.33849207E-01 2.94621097E-03-7.02216720E-03-1.19086427E-02
 9 14-1.19178523E-01-3.90049965E-03-6.58316130E-03-2.51607639E-03 1.95874469E-03
 9 15 2.83328434E-03-3.95509458E-03-4.64434664E-03-4.53160117E-05-1.07729827E-03
 9 16-6.82223954E-02 1.33848616E-01 2.94624394E-03-7.02224370E-03 1.19087458E-02
 9 17 1.19176177E-01-3.90124001E-03-6.58394853E-03 2.51607467E-03-1.95873398E-03
 9 18-2.83327961E-03 3.95513397E-03 4.64427475E-03-4.52670335E-05-1.07733781E-03
 9 19-8.46397396E-02-2.54194317E-02-9.92607342E-02-2.74339116E-02 4.57098648E-02
 9 20 1.37280394E-02 5.36060020E-02 1.48154614E-02-4.57101454E-02-1.37279562E-02
 9 21-5.36061759E-02-1.48157485E-02 8.46398865E-02 2.54204749E-02 9.92607205E-02
 9 22 2.74328284E-02
10  1 3.35348718E-08-1.19492964E-07-9.76601448E-02 5.79364964E-02 4.40285788E-07
10  2 8.57478742E-07-2.41414144E-02 4.59027271E-03-4.30181735E-06-5.62166895E-08
10  3-4.48465481E-08 1.43518069E-07 1.06767546E-07-1.69910319E-03 7.23920983E-03
10  4-5.77461268E-08-6.21286587E-08-1.54798654E-01-1.33304025E-01 1.18660289E-06
10  5 9.29876099E-07-3.18825860E-02-2.13160434E-02-5.09597242E-06 6.97669728E-08
10  6 2.90310935E-08-2.14054005E-07 1.49439140E-07 6.78144820E-03 9.77096838E-03
10  7-6.82224741E-02 1.33848449E-01-7.02282881E-03-2.94659135E-03-1.19087125E-02
10  8 1.19179345E-01-6.58324029E-03 3.89900706E-03-2.51568878E-03-2.83331142E-03
10  9-1.95869308E-03 3.95505718E-03-4.64434798E-03 1.07737323E-03-4.52528974E-05
10 10 6.82228446E-02-1.33849549E-01-7.02261736E-03-2.94667468E-03 1.19085457E-02
10 11-1.19176877E-01-6.58513631E-03 3.90093012E-03 2.51707121E-03 2.83333692E-03
10 12 1.95870520E-03-3.95518284E-03 4.64429182E-03 1.07730772E-03-4.52838227E-05
10 13 1.26325645E-01-2.47843493E-01-6.46542784E-03-1.07962201E-03-2.20509321E-02
10 14-2.20679630E-01-1.04317597E-02-8.97881228E-03-4.65798208E-03 4.67055883E-03
10 15 4.20272136E-03-7.32346262E-03-8.60006374E-03-1.31813142E-03-7.60353986E-04
10 16-1.26325791E-01 2.47844532E-01-6.46517227E-03-1.07956492E-03 2.20507678E-02
10 17 2.20674158E-01-1.04342634E-02-8.98137195E-03 4.65985277E-03-4.67053287E-03
10 18-4.20268285E-03 7.32366298E-03 8.59993885E-03-1.31801032E-03-7.60399587E-04
10 19 4.57097996E-02 1.37275874E-02 5.36060693E-02 1.48160621E-02 8.46401608E-02
10 20 2.54207377E-02 9.92608698E-02 2.74331492E-02-8.46396679E-02-2.54188493E-02
10 21-9.92607998E-02-2.74340954E-02-4.57103671E-02-1.37286619E-02-5.36062609E-02
10 22-1.48149302E-02
11  1-7.26313807E-02 1.48946369E-01-8.51483590E-07 1.52135487E-07-1.91524831E-01
11  2 1.43218966E-01 5.83698824E-07-4.36567534E-07-4.91198248E-02-6.99008048E-03
11  3-6.99051058E-03 8.41537652E-03 8.28253037E-04 5.56097366E-08-2.02817810E-08
11  4-7.26318197E-02 1.48945246E-01 8.77081695E-07 2.25930446E-07 1.91524959E-01
11  5 1.43229362E-01-6.09240541E-07-5.65764803E-07 4.91155680E-02-6.99071773E-03
11  6-6.99047905E-03 8.41512453E-03-8.28030096E-04 5.34325738E-08 1.53764238E-08
11  7 6.52813709E-02-1.28740075E-01 3.65009393E-02-3.65100507E-02-9.74011153E-02
11  8-1.36282082E-01 7.85283354E-03-7.85511405E-03-3.11572146E-02 2.84211178E-03
11  9 2.84061725E-03-5.32318550E-03 3.64070610E-03-5.22772994E-03 5.22894012E-03
11 10 6.52816420E-02-1.28740543E-01-3.65024203E-02 3.65108116E-02-9.74007976E-02
11 11-1.36283586E-01-7.85266661E-03 7.85460929E-03-3.11568125E-02 2.84222677E-03
11 12 2.84064621E-03-5.32337508E-03 3.64062840E-03 5.22761544E-03-5.22892554E-03
11 13 6.52813726E-02-1.28739770E-01-3.65093899E-02-3.65014812E-02 9.74012351E-02
11 14-1.36286136E-01-7.85209030E-03-7.85065983E-03 3.11578297E-02 2.84060703E-03
11 15 2.84203943E-03-5.32320218E-03-3.64077717E-03-5.22890145E-03-5.22767695E-03
11 16 6.52816846E-02-1.28740125E-01 3.65107926E-02 3.65021983E-02 9.74009375E-02
11 17-1.36288784E-01 7.85233419E-03 7.85062976E-03 3.11573184E-02 2.84075467E-03
11 18 2.84211319E-03-5.32337053E-03-3.64071327E-03 5.22880219E-03 5.22767491E-03
11 19-1.01949248E-01-4.96960854E-02-5.43551233E-02-2.76399877E-02-1.01949604E-01
11 20-4.96954258E-02-5.43554035E-02-2.76413023E-02-1.01949201E-01-4.96954319E-02
11 21-5.43551122E-02-2.76414924E-02-1.01949625E-01-4.96965019E-02-5.43554325E-02
11 22-2.76407109E-02
12  1 7.98675227E-02-1.65302937E-01-5.86756059E-07 2.26483451E-07-9.65808934E-02
12  2-1.70233864E-01 1.86742425E-06-2.45491695E-06 1.19868943E-02 3.75978632E-03
12  3 3.75899924E-03 7.17768158E-03 1.60512732E-03 1.07079210E-07-1.83520768E-08
12  4-7.98676884E-02 1.65302025E-01-5.89142322E-07-2.51802079E-07-9.65810966E-02
12  5 1.70245027E-01 1.82023343E-06 2.40814067E-06 1.19825501E-02-3.75936314E-03
12  6-3.75987399E-03-7.17791996E-03 1.60531797E-03-1.08235637E-07-1.86748823E-08
12  7-3.79885112E-02 7.72174903E-02-1.36184576E-01 1.36217495E-01 5.52533875E-02
12  8 8.21198539E-02-5.20519356E-02 5.20648509E-02 9.29250282E-03-3.42216644E-03
12  9-3.42217119E-03 9.23525385E-03-1.79263101E-05 7.52035955E-03-7.52204046E-03
12 10-3.79882870E-02 7.72173795E-02 1.36185134E-01-1.36217541E-01 5.52510643E-02
12 11 8.21149259E-02 5.20531548E-02-5.20657170E-02 9.29405662E-03-3.42230461E-03
12 12-3.42216272E-03 9.23545079E-03-1.77164438E-05-7.52023841E-03 7.52202776E-03
12 13 3.79885649E-02-7.72166678E-02-1.36216147E-01-1.36185604E-01 5.52536191E-02
12 14-8.21260808E-02-5.20616485E-02-5.20502765E-02 9.29207792E-03 3.42223730E-03
12 15 3.42225001E-03-9.23505677E-03-1.80798974E-05-7.52204898E-03-7.52022556E-03
12 16 3.79883775E-02-7.72166087E-02 1.36216784E-01 1.36185738E-01 5.52514074E-02
12 17-8.21214728E-02 5.20630130E-02 5.20512944E-02 9.29345431E-03 3.42237363E-03
12 18 3.42224601E-03-9.23525343E-03-1.78790771E-05 7.52193666E-03 7.52021525E-03
12 19 7.36700193E-02 5.09780038E-02 1.10285878E-01 6.09822914E-02-7.36697996E-02
12 20-5.09764410E-02-1.10285670E-01-6.09825824E-02-7.36698902E-02-5.09772726E-02
12 21-1.10285738E-01-6.09823853E-02 7.36697937E-02 5.09770646E-02 1.10285753E-01
12 22 6.09827261E-02
13  1 2.65743294E-02-5.92177519E-02-1.01184089E-06 4.47562352E-08-1.95942253E-01
13  2-1.79629703E-02 2.80086022E-06-2.06691906E-06-4.29447436E-02 2.75502666E-03
13  3 2.75517024E-03-8.67289083E-04-6.89339565E-04-2.29538155E-08-8.37219148E-08
13  4 2.65743148E-02-5.92175736E-02 1.01373446E-06 7.31949565E-08 1.95942674E-01
13  5-1.79653283E-02-3.03322174E-06-2.22202065E-06 4.29311630E-02 2.75549841E-03
13  6 2.75508892E-03-8.67473013E-04 6.89422497E-04-1.42008614E-08 8.81093054E-08
13  7-1.44942969E-02 2.76693992E-02-1.39903780E-01 1.39936849E-01-7.92386736E-02
13  8 3.30163332E-02-5.91585166E-02 5.91723630E-02-4.30635554E-02-3.49945248E-04
13  9-3.49555493E-04 2.58928372E-03-9.64145136E-04 5.92822865E-03-5.92952557E-03
13 10-1.44940628E-02 2.76696662E-02 1.39902345E-01-1.39936206E-01-7.92411724E-02
13 11 3.30091914E-02 5.91586828E-02-5.91733447E-02-4.30628072E-02-3.49927815E-04
13 12-3.49514589E-04 2.58945459E-03-9.63953788E-04-5.92823229E-03 5.92957823E-03
13 13-1.44942222E-02 2.76698261E-02 1.39936398E-01 1.39904292E-01 7.92379107E-02
13 14 3.30111219E-02 5.91750557E-02 5.91613609E-02 4.30654943E-02-3.49548092E-04
13 15-3.49926018E-04 2.58942180E-03 9.64003891E-04 5.92958835E-03 5.92811784E-03
13 16-1.44940361E-02 2.76699860E-02-1.39935039E-01-1.39903682E-01 7.92404088E-02
13 17 3.30048698E-02-5.91756632E-02-5.91627972E-02 4.30641125E-02-3.49573927E-04
13 18-3.49940220E-04 2.58957320E-03 9.63818455E-04-5.92960951E-03-5.92818960E-03
13 19-2.30959222E-02-1.05247362E-02 1.30304169E-01 7.93967564E-02-2.30956123E-02
13 20-1.05233722E-02 1.30303740E-01 7.93953160E-02-2.30953952E-02-1.05227036E-02
13 21 1.30303928E-01 7.93951415E-02-2.30961986E-02-1.05243661E-02 1.30303941E-01
13 22 7.93974957E-02
14  1-7.50023014E-08 3.15067534E-07-9.26382862E-02 2.01174270E-01 6.25193342E-07
14  2-7.51343472E-07 6.06013664E-03 5.80923997E-02-1.00506639E-06-1.09046779E-08
14  3 1.13650667E-08 3.16304640E-08-1.59212405E-09-3.32371755E-03-4.54671563E-03
14  4-7.04998187E-08 3.48597668E-07 1.07826355E-01 2.08558505E-01-7.35897808E-07
14  5-1.23173418E-06-1.76153065E-03 5.78091109E-02-4.79694450E-07-1.32521244E-09
14  6 1.39394792E-08 1.88142627E-08-6.18601983E-09-2.99542095E-03 4.31387378E-03
14  7 7.35109805E-03-1.52638750E-02 8.57520991E-02-4.36983086E-02-1.92650552E-01
14  8-1.02403468E-02 3.62499900E-02-1.59424054E-02-8.95936176E-02 4.21929853E-03
14  9 5.04014834E-04-9.66482509E-03-2.08939757E-03-4.33910777E-03 1.94153108E-03
14 10-7.35115155E-03 1.52637858E-02 8.57544652E-02-4.36993286E-02 1.92648439E-01
14 11 1.02420607E-02 3.62505476E-02-1.59423505E-02 8.95925836E-02-4.21939691E-03
14 12-5.04045859E-04 9.66481933E-03 2.08936769E-03-4.33891098E-03 1.94144461E-03
14 13 7.91523371E-03-1.64349629E-02-8.92303505E-02-5.01438082E-02 2.07434472E-01
14 14-1.10302931E-02-3.75310341E-02-1.86592780E-02 9.64677801E-02 4.26894862E-03
14 15 8.16806555E-04-1.04065011E-02 2.24865400E-03-4.49505212E-03-2.26690562E-03
14 16-7.91525202E-03 1.64348806E-02-8.92327739E-02-5.01447700E-02-2.07432567E-01
14 17 1.10310390E-02-3.75322996E-02-1.86598654E-02-9.64658100E-02-4.26904886E-03
14 18-8.16835947E-04 1.04065215E-02-2.24864279E-03-4.49484139E-03-2.26680274E-03
14 19-1.22776802E-01-8.10119488E-02 2.05581274E-04-2.75680928E-03 1.32198128E-01
14 20 8.72291491E-02-2.21143911E-04 2.96781143E-03-1.32198588E-01-8.72288292E-02
14 21 2.21366361E-04-2.96844483E-03 1.22776224E-01 8.10113124E-02-2.05178284E-04
14 22 2.75705923E-03
15  1 9.29815254E-08-2.83648801E-07 2.08555247E-01-1.07828140E-01-1.00407425E-06
15  2 2.81398107E-07 5.78028728E-02 1.76062928E-03 1.00839126E-06-4.19551490E-08
15  3-5.42920423E-09 4.81781683E-08-3.30598411E-08-4.31400348E-03-2.99529330E-03
15  4-8.38538541E-08 2.71321369E-07 2.01171030E-01 9.26399261E-02-9.58673772E-07
15  5-4.58745769E-07 5.80949687E-02-6.05480361E-03 1.26769597E-06 3.56689706E-08
15  6 2.00522015E-09-5.22795007E-08-3.88769419E-08 4.54669813E-03-3.32388834E-03
15  7-7.91503918E-03 1.64349449E-02-5.01404758E-02 8.92321588E-02 2.07435174E-01
15  8 1.10263673E-02-1.86573449E-02 3.75344291E-02 9.64692625E-02-8.16891788E-04
15  9-4.26895118E-03 1.04065708E-02 2.24871338E-03 2.26685655E-03-4.49501865E-03
15 10 7.91510679E-03-1.64349047E-02-5.01433904E-02 8.92332866E-02-2.07433054E-01
15 11-1.10280879E-02-1.86581725E-02 3.75344111E-02-9.64684092E-02 8.16954760E-04
15 12 4.26897785E-03-1.04065333E-02-2.24869705E-03 2.26670088E-03-4.49492417E-03
15 13 7.35094470E-03-1.52633833E-02-4.36947454E-02-8.57533534E-02 1.92651333E-01
15 14-1.02435844E-02-1.59391611E-02-3.62510939E-02 8.95923411E-02 5.04131695E-04
15 15 4.21923695E-03-9.66489656E-03 2.08931272E-03-1.94141856E-03-4.33897961E-03
15 16-7.35097030E-03 1.52634343E-02-4.36974001E-02-8.57544922E-02-1.92649397E-01
15 17 1.02447906E-02-1.59394275E-02-3.62506614E-02-8.95919151E-02-5.04149457E-04
15 18-4.21922969E-03 9.66488120E-03-2.08930519E-03-1.94126522E-03-4.33887705E-03
15 19 1.32199054E-01 8.72291740E-02-2.22385411E-04 2.96786146E-03 1.22776564E-01
15 20 8.10120147E-02-2.06004453E-04 2.75674543E-03-1.22777188E-01-8.10127813E-02
15 21 2.06651307E-04-2.75560978E-03-1.32198354E-01-8.72283663E-02 2.21736117E-04
15 22-2.96825401E-03
16  1 3.13294835E-02-6.92140607E-02-6.50395362E-07-1.79488869E-08 1.02835680E-02
16  2-7.07407291E-02-1.42803037E-06 1.40984078E-06 3.59765391E-03-5.02266971E-03
16  3-5.02655559E-03 1.40436675E-02 9.55129114E-03 1.19066563E-07-6.36073087E-08
16  4-3.13297578E-02 6.92124374E-02-6.89753363E-07 4.08873497E-08 1.02835660E-02
16  5 7.07582884E-02-6.98661450E-07-7.15260539E-07 3.58995689E-03 5.02627926E-03
16  6 5.02246218E-03-1.40439667E-02 9.55158861E-03-1.10605856E-07-7.53020348E-08
16  7 5.57237092E-03-1.26404467E-02 4.31150802E-02-4.31247833E-02 2.17486281E-01
16  8-1.61723851E-02 2.42316406E-02-2.42374675E-02 9.17499464E-02-4.79616207E-03
16  9-4.79851807E-03 1.12559890E-02 6.01526646E-03-2.93640054E-03 2.93705073E-03
16 10 5.57235100E-03-1.26406884E-02-4.31125975E-02 4.31233855E-02 2.17488260E-01
16 11-1.61696138E-02-2.42309858E-02 2.42370407E-02 9.17491188E-02-4.79609796E-03
16 12-4.79856566E-03 1.12559640E-02 6.01520678E-03 2.93668845E-03-2.93721409E-03
16 13-5.57228873E-03 1.26416503E-02 4.31256836E-02 4.31154002E-02 2.17486590E-01
16 14 1.61619449E-02 2.42411647E-02 2.42357055E-02 9.17493303E-02 4.79869889E-03
16 15 4.79619899E-03-1.12557853E-02 6.01507563E-03 2.93714804E-03 2.93642345E-03
16 16-5.57228508E-03 1.26418985E-02-4.31231193E-02-4.31137390E-02 2.17488051E-01
16 17 1.61603004E-02-2.42406950E-02-2.42353688E-02 9.17500955E-02 4.79864670E-03
16 18 4.79626178E-03-1.12557440E-02 6.01503162E-03-2.93742756E-03-2.93658243E-03
16 19 1.30243592E-01 1.05846984E-01-1.03474528E-01-7.08410460E-02-1.30244005E-01
16 20-1.05845881E-01 1.03475062E-01 7.08413880E-02-1.30243544E-01-1.05845972E-01
16 21 1.03475079E-01 7.08414938E-02 1.30244319E-01 1.05848415E-01-1.03474855E-01
16 22-7.08421527E-02
17  1 1.70886002E-07 5.14616476E-07-1.65720442E-01 1.70626098E-01 2.37586645E-06
17  2-7.50284142E-06-3.19731018E-02 3.50214766E-02-9.04900246E-06-7.59748607E-08
17  3 7.54950009E-09 2.78082016E-07 2.69806785E-07-1.30911924E-02 1.22205805E-02
17  4 9.04304067E-08 4.01684728E-07 7.35413581E-03 4.10808613E-02-1.01976454E-06
17  5-6.14325903E-06-5.69549766E-03 1.53456629E-02-2.61789770E-06 7.19571078E-08
17  6 1.02002907E-07-1.25941421E-07-2.11957842E-08-4.85499925E-03 1.21142443E-03
17  7-1.71070364E-02 3.69026957E-02 2.15495609E-01-2.14486814E-01 1.33009695E-01
17  8 6.25732126E-02 9.04733902E-02-9.08552856E-02 4.91731376E-02-7.81881949E-03
17  9-7.92722197E-03 8.29381101E-03 8.21663499E-03-1.30986039E-02 1.30691190E-02
17 10 1.71067638E-02-3.69036054E-02 2.15494001E-01-2.14486165E-01-1.33014532E-01
17 11-6.25594947E-02 9.04668638E-02-9.08490910E-02-4.91720501E-02 7.81850264E-03
17 12 7.92709493E-03-8.29384335E-03-8.21676289E-03-1.30988257E-02 1.30692606E-02
17 13-2.46306720E-03 5.31333106E-03-3.46503153E-02-2.72631890E-02-1.91534560E-02