 $contrl scftyp=reks runtyp=gradient dfttyp=bhhlyp icharg=0
         maxit=500 mult=1
 $end
 $dft sg1=.true. $end
 $scf
 nconv=6
 npunch=2
 $end
$reks
 rexType=2
 rexTarget=1
wpps=0.95
rexShift=0.7
rexDIIS=no
$end
 $basis gbasis=n31 ngauss=6 ndfunc=1 $end
 $guess guess=moread norb=106 $end
 $system timlim=999999100 mwords=700 $end
 $data
TME planar S0 state
 c1
C   6.0     0.000000000000       -0.000000887764        0.751312283093
C   6.0     0.000000000000       -0.000000645364       -0.751327135907
C   6.0    -0.000000000000        1.186878101336        1.451799611793
C   6.0     0.000000000000       -1.186878282564        1.451803515393
C   6.0    -0.000000000000        1.186885177136       -1.451800962507
C   6.0     0.000000000000       -1.186883761364       -1.451803381707
H   1.0     0.000000000000        1.173249270836        2.528163853193
H   1.0     0.000000000000        2.152999666336        0.985191204593
H   1.0    -0.000000000000       -1.173266420964       -2.528167756607
H   1.0    -0.000000000000       -2.153001517064       -0.985186618607
H   1.0     0.000000000000        1.173267239736       -2.528165752207
H   1.0     0.000000000000        2.153000372336       -0.985180620507
H   1.0    -0.000000000000       -1.173247895964        2.528167291793
H   1.0    -0.000000000000       -2.153000416664        0.985194468193
 $end
 $VEC   
 1  1 7.02700776E-01 2.87941430E-02 2.68678941E-18 1.87431232E-09 1.00347517E-04
 1  2-8.23549127E-03-4.33045721E-20-2.19157193E-08-1.14226517E-03-4.75693297E-03
 1  3-4.33956783E-03-4.78811157E-03 1.52726879E-18-2.30901902E-19-7.74903351E-11
 1  4 7.01970075E-01 2.87638384E-02 7.13514386E-18-1.01139980E-09-1.00638515E-04
 1  5-8.21777397E-03-1.58941998E-18 2.64578040E-08 1.14885235E-03-4.75234299E-03
 1  6-4.33551881E-03-4.78399322E-03 1.04458979E-18-7.26152694E-19 5.07826252E-10
 1  7 1.65834753E-02 3.97099027E-04-1.48302453E-18 1.79809767E-04 1.41635299E-04
 1  8 2.76832084E-03-8.17099386E-19-9.74937475E-04-6.08795070E-04-2.05127201E-04
 1  9-3.27232543E-04-2.82147967E-04 4.91351440E-19-1.18893965E-19-8.49341391E-05
 1 10 1.65835417E-02 3.97102737E-04-9.95898127E-19-1.79809601E-04 1.41637044E-04
 1 11 2.76829592E-03-3.85437042E-19 9.74926090E-04-6.08792010E-04-2.05128049E-04
 1 12-3.27233159E-04-2.82149673E-04-6.80543935E-21-6.50050929E-20 8.49351104E-05
 1 13 1.65667143E-02 3.96507545E-04 9.10720692E-19 1.79633010E-04-1.41515947E-04
 1 14 2.76609818E-03 6.00581344E-19-9.75227827E-04 6.07014039E-04-2.04985027E-04
 1 15-3.26696461E-04-2.81817571E-04-4.11527259E-19 2.74404627E-19 8.48611151E-05
 1 16 1.65667817E-02 3.96506050E-04 3.93471083E-19-1.79632161E-04-1.41516827E-04
 1 17 2.76613814E-03 7.72134298E-19 9.75239699E-04 6.07036170E-04-2.04986424E-04
 1 18-3.26695012E-04-2.81818184E-04 7.09129401E-20-9.81914693E-20-8.48590609E-05
 1 19-4.28481884E-05-1.02030734E-05-8.70812013E-05-7.55135185E-05-4.29165337E-05
 1 20-1.05956245E-05-8.69449656E-05-7.46151229E-05-4.29164296E-05-1.06024407E-05
 1 21-8.69434848E-05-7.46144267E-05-4.28477648E-05-1.02031680E-05-8.70806856E-05
 1 22-7.55159364E-05
 2  1-7.02181569E-01-2.89737882E-02-1.95651037E-16-1.62062678E-09 1.92882035E-04
 2  2 1.51041755E-02-5.41624343E-16 1.96571317E-08-3.14685576E-03 4.49563158E-03
 2  3 3.95312275E-03 3.90661549E-03-2.01191814E-16 9.30323385E-17 7.19401595E-10
 2  4 7.02911902E-01 2.90037602E-02 3.94737164E-16 2.52556901E-09 1.92804429E-04
 2  5-1.51128006E-02 4.42546179E-16-4.00215010E-08-3.14572454E-03-4.50056999E-03
 2  6-3.95761940E-03-3.91160451E-03 8.42871589E-17 6.08826911E-17 3.23658328E-09
 2  7-1.71800927E-02-5.86963801E-04 3.27422455E-16-1.73580051E-04-9.40817601E-05
 2  8-2.72578145E-03 5.15242637E-16 5.11287312E-04 1.07322605E-03 1.48108033E-04
 2  9 4.73805904E-04 3.40076986E-04-6.58551853E-18 4.01134586E-17 9.03567797E-05
 2 10-1.71801679E-02-5.86965697E-04 2.04661361E-16 1.73580575E-04-9.40833455E-05
 2 11-2.72575832E-03 4.29523185E-16-5.11276348E-04 1.07322809E-03 1.48109318E-04
 2 12 4.73807268E-04 3.40077268E-04-8.30381294E-17 1.91670794E-17-9.03577134E-05
 2 13 1.71984545E-02 5.87419696E-04 2.65602744E-16 1.73769004E-04-9.42342164E-05
 2 14 2.72869718E-03 1.47954814E-16-5.12320677E-04 1.07389322E-03-1.48333154E-04
 2 15-4.74153923E-04-3.40385248E-04-7.39224144E-17 5.71550009E-17 9.04439680E-05
 2 16 1.71985270E-02 5.87423204E-04 1.02852557E-16-1.73771891E-04-9.42350731E-05
 2 17 2.72864211E-03-7.89162553E-17 5.12303784E-04 1.07386667E-03-1.48331969E-04
 2 18-4.74154152E-04-3.40385867E-04-1.53440330E-17-4.29315948E-17-9.04448174E-05
 2 19 7.65997101E-06-6.86936393E-05 8.79253121E-05 3.81154938E-04-7.70138773E-06
 2 20 6.86898236E-05-8.80163553E-05-3.81242009E-04-7.70157771E-06 6.86980907E-05
 2 21-8.80189729E-05-3.81247498E-04 7.65941651E-06-6.86969091E-05 8.79254609E-05
 2 22 3.81157518E-04
 3  1-5.45171520E-05-2.94414057E-06-4.10008446E-16 1.79297983E-04-4.03312573E-07
 3  2 9.69199555E-06-5.92486212E-16-8.93431089E-04 6.64338070E-07 8.58959052E-08
 3  3-6.20552120E-07-3.49898568E-07 1.55136241E-18 4.40205443E-17 7.22711317E-05
 3  4-1.15390706E-05-7.10664479E-07-3.79373045E-16-2.13804145E-04 5.00352141E-08
 3  5-4.31118321E-07-3.74739084E-16 1.08544935E-03-9.08062747E-07 7.69554800E-09
 3  6-1.10957857E-07 1.13944836E-07-1.23139570E-16 5.98354021E-17 8.12184665E-05
 3  7-4.67341600E-01-1.92438376E-02 2.14968255E-16 5.09576351E-05 6.64409491E-05
 3  8 5.73429801E-03 4.46407172E-16-1.88792443E-04-1.71928265E-04 3.17128015E-03
 3  9 2.99811428E-03 2.99932365E-03 1.17412470E-17-1.33595521E-17-5.52163156E-05
 3 10 4.69574358E-01 1.93348956E-02 2.22133724E-16 5.11893989E-05-6.67112189E-05
 3 11-5.76155300E-03 4.49069298E-16-1.89304669E-04 1.73503874E-04-3.18683311E-03
 3 12-3.01183911E-03-3.01366230E-03 1.54284128E-17 7.32802057E-17-5.55255962E-05
 3 13 5.24152034E-01 2.15812406E-02 4.39247667E-17-5.92282791E-05 6.28736291E-05
 3 14-6.46070731E-03 1.94474611E-16 2.68086163E-04-1.78774750E-04-3.56215300E-03
 3 15-3.36295529E-03-3.37124785E-03-5.52291386E-17 7.82057552E-18-5.86878652E-05
 3 16-5.23638503E-01-2.15605942E-02 1.96988370E-16-5.90871997E-05-6.29653777E-05
 3 17 6.45659514E-03 3.35692538E-16 2.67760996E-04 1.80069817E-04 3.55836419E-03
 3 18 3.35972842E-03 3.36785303E-03-7.99689632E-17-2.60556885E-17-5.85915981E-05
 3 19 1.12873198E-04-1.04774605E-03 1.35787711E-04-1.24720042E-03 1.21930167E-04
 3 20-1.18486345E-03 1.54683343E-04-1.34107364E-03-1.22048543E-04 1.18647141E-03
 3 21-1.54982231E-04 1.34112643E-03-1.13569049E-04 1.05223118E-03-1.36387501E-04
 3 22 1.25299847E-03
 4  1-8.00466024E-05-4.26487797E-06 2.83024769E-16 3.19700032E-04-6.06357050E-07
 4  2 1.69258991E-05 4.33668815E-16-1.77299461E-03-5.62281420E-07 1.30824310E-07
 4  3-9.41675087E-07-6.69764063E-07-6.13123065E-17-1.16344865E-16 8.44139591E-05
 4  4 3.20530536E-05 1.59090070E-06 6.33512801E-16 2.97730215E-04-2.60786565E-07
 4  5-9.96458699E-06 8.72950535E-16-1.66204786E-03-1.85392521E-06-7.21218708E-08
 4  6 4.12195228E-07 4.97204763E-07 1.13028536E-17-3.07840609E-17-7.58387446E-05
 4  7-5.22263328E-01-2.14948234E-02-3.68062486E-16 7.53263741E-05-2.94672024E-05
 4  8 6.68072338E-03-5.22359627E-16-7.18741935E-04-6.71741839E-05 3.58877459E-03
 4  9 3.35734914E-03 3.41703505E-03-1.43382445E-16-9.38829986E-17-3.22365262E-05
 4 10 5.25506197E-01 2.16273404E-02-4.47763091E-16 7.55783208E-05 2.89167001E-05
 4 11-6.72189836E-03-6.49995718E-16-7.18829678E-04 7.12999479E-05-3.61117754E-03
 4 12-3.37720104E-03-3.43778749E-03-2.39264523E-17 3.19432610E-17-3.26565474E-05
 4 13-4.69075826E-01-1.93042733E-02-2.65688044E-16 6.92974122E-05 3.62085225E-05
 4 14 6.02822744E-03-6.25640808E-16-6.92839065E-04 5.14385012E-05 3.22770042E-03
 4 15 3.01541131E-03 3.07518039E-03 5.61704986E-17-6.28809527E-17 2.61459575E-05
 4 16 4.67824043E-01 1.92527537E-02-2.53251761E-16 6.93128222E-05-3.66458394E-05
 4 17-6.01008334E-03-5.68877136E-16-6.93519865E-04-4.74436730E-05-3.21930771E-03
 4 18-3.00784598E-03-3.06727107E-03 6.22008320E-17 8.36219870E-18 2.60201402E-05
 4 19 8.44936948E-05-1.27416153E-03 1.75593022E-04-8.81567828E-04-7.16459303E-05
 4 20 1.15155896E-03-1.59680014E-04 7.38899120E-04 7.21519596E-05-1.15284302E-03
 4 21 1.59728860E-04-7.44603064E-04-8.55777692E-05 1.27995817E-03-1.76297692E-04
 4 22 8.91464999E-04
 5  1 2.37116427E-02 1.23566432E-03 1.89704830E-16 8.59970733E-07 1.83980890E-04
 5  2-5.79163564E-03 4.49328589E-16-4.82101689E-06 5.69969755E-04-4.34676683E-05
 5  3 2.87391691E-04 2.53790155E-04-7.53193000E-17-2.38334671E-17 2.43591569E-07
 5  4-2.57864978E-02-1.35050989E-03 2.22139902E-16 4.81150959E-07 1.98229648E-04
 5  5 6.08219790E-03 2.27640142E-16-2.62001379E-06 5.20687424E-04 4.64251132E-05
 5  6-3.10320058E-04-2.61168109E-04-5.58619449E-17 2.10466031E-17-1.05454574E-07
 5  7-4.76173416E-01-1.95034404E-02-2.10814549E-16 2.32913877E-05 1.07593587E-04
 5  8 6.31731744E-03-4.26565176E-16 7.48109060E-05-8.95572729E-04 3.25875688E-03
 5  9 2.90326637E-03 3.03537542E-03 6.73279405E-17-1.98974309E-17-5.74274257E-05
 5 10-4.73096765E-01-1.93767910E-02-4.62354191E-16-2.28755225E-05 1.07624550E-04
 5 11 6.27811529E-03-6.03769402E-16-7.84019751E-05-8.94931233E-04 3.23768737E-03
 5 12 2.88350625E-03 3.01534008E-03 4.90153169E-17 5.90141366E-18 5.72014021E-05
 5 13 5.17110120E-01 2.11675619E-02-2.51774950E-16-2.88089206E-05 1.10525142E-04
 5 14-6.78196240E-03-2.97552941E-16-6.48465922E-05-8.99627424E-04-3.54744443E-03
 5 15-3.15537392E-03-3.29954405E-03-1.54571261E-16 5.62825466E-17-6.37007885E-05
 5 16 5.18344030E-01 2.12183135E-02 2.33335247E-17 2.90208686E-05 1.10269097E-04
 5 17-6.79798567E-03-1.12011911E-16 6.23216370E-05-8.99471189E-04-3.55601900E-03
 5 18-3.16332124E-03-3.30773963E-03-8.31347055E-17-4.63976347E-17 6.37324176E-05
 5 19 1.69634853E-04-7.36422197E-04 7.65949060E-05-1.68124778E-03-1.82184589E-04
 5 20 8.30020115E-04-9.04283528E-05 1.77070771E-03-1.82056524E-04 8.26810239E-04
 5 21-8.99635052E-05 1.76956439E-03 1.69082277E-04-7.29067416E-04 7.55994706E-05
 5 22-1.67532066E-03
 6  1-2.49457970E-02-1.37764601E-03-3.24119192E-17-6.06290123E-07-1.72501630E-04
 6  2 3.60373108E-03-6.70112805E-17 3.22046566E-06 5.44300818E-04 3.58880991E-05
 6  3-2.77044670E-04-9.62969966E-05 2.06811507E-16-1.18460284E-17-1.93412352E-07
 6  4-2.27981132E-02-1.26539244E-03 3.32696636E-16-2.47416339E-08 1.55919274E-04
 6  5 3.08786353E-03 3.61243769E-16 3.32954577E-07-5.92333015E-04 3.20022408E-05
 6  6-2.51076605E-04-7.39435357E-05 1.21862864E-16 1.13905390E-17-3.30407583E-08
 6  7 5.18953832E-01 2.11152832E-02-8.00532156E-17-6.84258992E-05-3.67758045E-05
 6  8-5.96768912E-03-9.79696759E-17 1.48099774E-04 8.84419154E-05-3.65065212E-03
 6  9-3.20163102E-03-3.34955708E-03 1.66524049E-16 8.75009542E-17 7.64357133E-05
 6 10 5.16472617E-01 2.10131327E-02 6.57127269E-18 6.81095750E-05-3.66537209E-05
 6 11-5.93659772E-03 4.56367204E-17-1.45947754E-04 8.78143166E-05-3.63372412E-03
 6 12-3.18570778E-03-3.33349276E-03 1.38847539E-16 6.35661888E-18-7.62104205E-05
 6 13 4.74395320E-01 1.92904537E-02-8.60446720E-17-6.60052321E-05 2.71100416E-05
 6 14-5.38154222E-03-2.32474666E-16 1.53704118E-04-9.86523165E-06-3.34540559E-03
 6 15-2.92938982E-03-3.06529571E-03 7.90531260E-17-4.54742081E-17-7.10145591E-05
 6 16 4.74851686E-01 1.93092601E-02 1.84711516E-16 6.60158449E-05 2.73703638E-05
 6 17-5.38653963E-03 7.21427989E-17-1.52886956E-04-1.02476354E-05-3.34842897E-03
 6 18-2.93230989E-03-3.06810677E-03 1.42595242E-16 2.25560278E-17 7.11296757E-05
 6 19-1.54811518E-04 1.13854989E-03-1.66357189E-04 1.13502796E-03-1.39377370E-04
 6 20 1.06835363E-03-1.58801233E-04 9.83543158E-04-1.39186236E-04 1.06752877E-03
 6 21-1.58713767E-04 9.81359727E-04-1.54306926E-04 1.13274408E-03-1.65580782E-04
 6 22 1.12954424E-03
 7  1-1.28936027E-01 2.53075233E-01 1.19246448E-16 2.44684706E-07-1.22067168E-02
 7  2 1.32395965E-01 2.09513654E-16 9.40376874E-07-1.92039378E-02-1.29899213E-02
 7  3 2.20913147E-03 6.81713116E-03 3.61929395E-17 2.26109625E-18 5.75552809E-08
 7  4-1.28937047E-01 2.53074545E-01 3.25370451E-17-4.43944897E-08 1.22060699E-02
 7  5 1.32417823E-01-7.32456540E-17 1.71342116E-06 1.92329232E-02-1.29906588E-02
 7  6 2.20879598E-03 6.81719260E-03 2.79353829E-17-5.88186848E-18-4.59242575E-08
 7  7-7.06101262E-02 1.34316740E-01-1.53482582E-16-5.45236086E-02-3.53564438E-02
 7  8 1.02564491E-01-2.40900768E-16-1.36144574E-02-1.47847623E-03-7.55951318E-03
 7  9 6.36459799E-03 2.07372337E-03 2.06318319E-17-2.93009611E-18 4.19740169E-03
 7 10-7.06099498E-02 1.34316126E-01 1.22410812E-16 5.45234160E-02-3.53564162E-02
 7 11 1.02566078E-01 6.22818512E-17 1.36150940E-02-1.47946021E-03-7.55956954E-03
 7 12 6.36457161E-03 2.07373668E-03 1.36892838E-17-3.88450185E-17-4.19745978E-03
 7 13-7.06105799E-02 1.34317507E-01 2.03299064E-17-5.45240341E-02 3.53565689E-02
 7 14 1.02569504E-01 4.80306474E-17-1.36209054E-02 1.47169290E-03-7.55958440E-03
 7 15 6.36499777E-03 2.07351115E-03 1.60966493E-17-3.41717218E-18-4.19721492E-03
 7 16-7.06106532E-02 1.34317251E-01 8.39114909E-17 5.45240931E-02 3.53566194E-02
 7 17 1.02572718E-01 1.24825096E-16 1.36213980E-02 1.47313549E-03-7.55968060E-03
 7 18 6.36496250E-03 2.07349183E-03 3.37925703E-17 1.33501053E-17 4.19730408E-03
 7 19 3.05950994E-02 1.73166804E-03 3.32279818E-02 8.22776909E-03 3.05946486E-02
 7 20 1.72835610E-03 3.32285634E-02 8.23149676E-03 3.05946454E-02 1.72810212E-03
 7 21 3.32287650E-02 8.23228512E-03 3.05950425E-02 1.73190808E-03 3.32277736E-02
 7 22 8.22764813E-03
 8  1-9.63067630E-02 1.92911168E-01-4.30213084E-16-1.24722375E-07 1.12942247E-01
 8  2 1.20733002E-01-4.27915946E-16 8.15109762E-06 1.10104532E-02-8.45692687E-03
 8  3 7.22908947E-03-7.55022504E-03 6.43724416E-17-2.09375036E-17 5.17868734E-08
 8  4 9.63069920E-02-1.92910547E-01 1.87608057E-16 5.39786039E-07 1.12939062E-01
 8  5-1.20744225E-01 8.13092923E-17-7.75550112E-06 1.10165888E-02 8.45731988E-03
 8  6-7.22919867E-03 7.55056825E-03-5.22055857E-17-2.68927645E-17 2.78737236E-08
 8  7-8.88511815E-02 1.70614740E-01 8.98324249E-18-6.20355750E-02-1.31349623E-02
 8  8 1.36858131E-01 1.81829331E-16-1.08403895E-02 2.97808175E-03-9.11493740E-03
 8  9 7.64736285E-03 2.06782679E-03 3.80617312E-17 8.09552287E-18 2.54425920E-03
 8 10-8.88512626E-02 1.70614284E-01-2.42304806E-16 6.20357131E-02-1.31352914E-02
 8 11 1.36868880E-01-3.20400630E-17 1.08435670E-02 2.97347624E-03-9.11506413E-03
 8 12 7.64737399E-03 2.06792142E-03-1.72684908E-17-6.34888659E-18-2.54445984E-03
 8 13 8.88501604E-02-1.70613454E-01 3.53989440E-16 6.20349698E-02-1.31343154E-02
 8 14-1.36850712E-01 3.43683561E-16 1.08365043E-02 2.97667513E-03 9.11473141E-03
 8 15-7.64719030E-03-2.06784688E-03-3.06630073E-17 7.15942608E-18 2.54415034E-03
 8 16 8.88506052E-02-1.70613674E-01 2.25689825E-16-6.20352530E-02-1.31347286E-02
 8 17-1.36861547E-01 1.91185453E-16-1.08395676E-02 2.97266811E-03 9.11488903E-03
 8 18-7.64720191E-03-2.06791334E-03-1.01632438E-17-1.43636765E-17-2.54437399E-03
 8 19 5.34631043E-02 1.04643575E-02 3.97027079E-02 5.94099445E-03-5.34626629E-02
 8 20-1.04668040E-02-3.97021785E-02-5.93934332E-03-5.34625835E-02-1.04660710E-02
 8 21-3.97022494E-02-5.93982071E-03 5.34630538E-02 1.04654948E-02 3.97024553E-02
 8 22 5.94029595E-03
 9  1-2.05572431E-07 8.69897942E-08 4.22485718E-17-1.72127419E-01 3.29989697E-07
 9  2 2.94097090E-06-3.47879329E-16-2.97188579E-02 1.12116196E-06-8.70563132E-08
 9  3-2.80010014E-08 1.83008987E-08-1.28660561E-17-3.60905852E-17-6.66972077E-03
 9  4-1.27341361E-07-8.84356051E-08 2.77601249E-16-1.72134317E-01-1.97047357E-07
 9  5 2.77211589E-06 5.22574462E-16-2.97246680E-02-1.77886065E-06-7.93633881E-08
 9  6-4.95734628E-08-1.76296506E-08-1.93919772E-17-4.36775954E-17 6.67023314E-03
 9  7 9.83400426E-02-1.91709982E-01 1.59245129E-16-6.22107133E-03 2.74928328E-02
 9  8-1.67204865E-01 3.96013761E-16-1.04168707E-02 1.36793385E-02 9.57977835E-03
 9  9-2.81497921E-03-5.47328609E-03-6.44666492E-17 3.27457436E-18 1.06097570E-03
 9 10-9.83402374E-02 1.91710673E-01 3.67823031E-16-6.22072869E-03-2.74926111E-02
 9 11 1.67202625E-01 5.99456084E-16-1.04182380E-02-1.36794639E-02-9.57973904E-03
 9 12 2.81495052E-03 5.47336831E-03-1.09862168E-17 2.82621306E-17 1.06100004E-03
 9 13 9.83447809E-02-1.91719157E-01-1.04106564E-16-6.22046550E-03-2.74933377E-02
 9 14-1.67211186E-01-3.00645251E-16-1.04177497E-02-1.36775974E-02 9.58026327E-03
 9 15-2.81507305E-03-5.47348959E-03 3.25617408E-17 7.08027371E-18-1.06109035E-03
 9 16-9.83446928E-02 1.91719345E-01-3.18820945E-16-6.22031044E-03 2.74930017E-02
 9 17 1.67207494E-01-4.49188334E-16-1.04195888E-02 1.36779890E-02-9.58017176E-03
 9 18 2.81507002E-03 5.47353896E-03 9.56860654E-19-2.74588988E-18-1.06104962E-03
 9 19-5.99982510E-02-2.07519434E-02-8.18857070E-02-2.52747458E-02 6.00016866E-02
 9 20 2.07528969E-02 8.18888635E-02 2.52750904E-02-6.00014925E-02-2.07518906E-02
 9 21-8.18892642E-02-2.52754576E-02 5.99986239E-02 2.07526352E-02 8.18855495E-02
 9 22 2.52744474E-02
10  1 5.24122345E-08-1.85088953E-07 9.98550260E-16-1.43401737E-01-7.60472900E-08
10  2-2.53612126E-07 7.57049861E-16-1.50997461E-02 6.02296504E-06-2.73754151E-08
10  3 2.25725821E-08-8.10818665E-08 7.87019508E-17 4.98235510E-18-1.32954284E-02
10  4-4.77623859E-08 1.71652178E-07 1.88142227E-16 1.43395966E-01-1.78727991E-07
10  5 3.11164737E-07-1.60484205E-16 1.50998641E-02 5.94577430E-06 2.00691543E-08
10  6 6.61359184E-09 9.58141371E-08 6.34100792E-18 3.88274247E-17-1.32950277E-02
10  7 1.04699399E-01-2.07049357E-01 5.68970863E-16-1.26543092E-02 2.54629103E-03
10  8-1.99083638E-01 5.30897987E-16-1.47637997E-02-3.38089107E-03 9.45703489E-03
10  9-2.78795229E-03-6.20996252E-03-6.06978348E-17 8.17213799E-18 1.76120002E-03
10 10-1.04699275E-01 2.07049535E-01-1.39907478E-17-1.26543873E-02-2.54621350E-03
10 11 1.99078892E-01 1.82273212E-16-1.47680080E-02 3.37926855E-03-9.45695108E-03
10 12 2.78777916E-03 6.21009824E-03 2.64809379E-20-1.32574978E-17 1.76123801E-03
10 13-1.04695240E-01 2.07041534E-01-4.01297633E-16 1.26527601E-02 2.54528893E-03
10 14 1.99074816E-01-6.59691320E-16 1.47637001E-02-3.38213221E-03-9.45658973E-03
10 15 2.78784246E-03 6.20977310E-03 9.71084634E-17 1.03516682E-17 1.76116281E-03
10 16 1.04694897E-01-2.07041346E-01 1.49035346E-16 1.26529748E-02-2.54511732E-03
10 17-1.99069159E-01 4.85770888E-16 1.47677723E-02 3.38063292E-03 9.45645838E-03
10 18-2.78772431E-03-6.20986103E-03-9.10669644E-18 2.41172251E-17 1.76111039E-03
10 19-7.84944919E-02-2.24275490E-02-8.26954417E-02-1.83203547E-02-7.84919773E-02
10 20-2.24278850E-02-8.26911558E-02-1.83170572E-02 7.84918898E-02 2.24265176E-02
10 21 8.26913672E-02 1.83187839E-02 7.84947248E-02 2.24288938E-02 8.26953666E-02
10 22 1.83182762E-02
11  1-7.71166083E-02 1.58310163E-01 2.52701697E-16-2.15842376E-08-1.85923928E-01
11  2 1.53590740E-01 9.46957473E-17-6.00443806E-07-4.53246522E-02-6.51018233E-03
11  3-7.36768365E-03 8.49172852E-03 1.58557660E-17 2.01772016E-17-2.76650849E-08
11  4-7.71162131E-02 1.58307007E-01 3.21541862E-16-1.29207062E-07 1.85924782E-01
11  5 1.53602258E-01 2.44531958E-16-5.24276773E-07 4.53260491E-02-6.51068434E-03
11  6-7.36797399E-03 8.49176587E-03 4.95466852E-18-1.09989405E-17 2.10243969E-08
11  7 6.41344254E-02-1.26386341E-01 1.54505887E-16-5.51800641E-02-9.24275578E-02
11  8-1.32180188E-01 3.33309234E-17-1.01282529E-02-2.91149365E-02 6.08617891E-03
11  9-1.31634798E-03-4.75650612E-03-5.87772201E-17-2.53213962E-17 8.23090705E-03
11 10 6.41344003E-02-1.26386107E-01 5.56895432E-16 5.51794839E-02-9.24276573E-02
11 11-1.32180981E-01 4.15908084E-16 1.01273972E-02-2.91146730E-02 6.08618936E-03
11 12-1.31633971E-03-4.75651959E-03-5.50584465E-19 5.71926282E-18-8.23083715E-03
11 13 6.41351702E-02-1.26387601E-01 1.79234945E-16-5.51813146E-02 9.24274727E-02
11 14-1.32184731E-01 1.15526262E-17-1.01265271E-02 2.91137757E-02 6.08623942E-03
11 15-1.31629743E-03-4.75668245E-03 1.80394464E-17-1.77986934E-18-8.23080726E-03
11 16 6.41352460E-02-1.26387383E-01-1.07101285E-16 5.51812401E-02 9.24280107E-02
11 17-1.32186629E-01-1.64664284E-16 1.01268712E-02 2.91134784E-02 6.08630346E-03
11 18-1.31632479E-03-4.75666860E-03 2.43346547E-17 1.86748104E-17 8.23074199E-03
11 19-9.71725042E-02-4.67822300E-02-6.27764480E-02-3.37687594E-02-9.71734728E-02
11 20-4.67825256E-02-6.27768983E-02-3.37688941E-02-9.71731811E-02-4.67826433E-02
11 21-6.27769569E-02-3.37699865E-02-9.71725736E-02-4.67822378E-02-6.27759763E-02
11 22-3.37689823E-02
12  1 8.04045488E-02-1.70341908E-01-3.85072118E-16-2.93262304E-07-9.55437023E-02
12  2-1.51392657E-01-5.68845342E-16-3.80652833E-06 1.56580835E-02 5.39445580E-03
12  3 1.21488721E-03 7.30576322E-03-3.25668421E-17-5.66571691E-18-2.07801969E-08
12  4-8.04061081E-02 1.70343788E-01 3.12252229E-16-9.74390306E-07-9.55536370E-02
12  5 1.51407874E-01 2.71652385E-16 3.73539906E-06 1.56484970E-02-5.39498054E-03
12  6-1.21512523E-03-7.30589750E-03-1.25140870E-16-5.36150649E-17-9.34316322E-09
12  7-3.88701559E-02 7.89081940E-02-3.40090894E-16 1.85528069E-01 8.32152806E-02
12  8 7.88477184E-02-6.71744863E-16 7.50486880E-02 2.50382836E-02-3.28346322E-03
12  9-2.86628801E-03 8.77362668E-03 4.11687574E-17 3.18876364E-17-1.07793617E-02
12 10-3.88700232E-02 7.89082179E-02 5.14650211E-16-1.85527377E-01 8.32156624E-02
12 11 7.88420110E-02 2.63275903E-16-7.50496618E-02 2.50402268E-02-3.28335509E-03
12 12-2.86630003E-03 8.77363492E-03-4.86357959E-17 3.57091729E-17 1.07794473E-02
12 13 3.88706557E-02-7.89083998E-02-8.08410303E-16-1.85539208E-01 8.32062068E-02
12 14-7.88566206E-02-5.97186097E-16-7.50484463E-02 2.50341561E-02 3.28368295E-03
12 15 2.86628730E-03-8.77361242E-03-4.83848200E-17 2.69047950E-18-1.07795196E-02
12 16 3.88705348E-02-7.89083737E-02 7.40187731E-17 1.85540448E-01 8.32080544E-02
12 17-7.88511530E-02 1.34838125E-16 7.50501800E-02 2.50370820E-02 3.28360578E-03
12 18 2.86621510E-03-8.77364736E-03 1.58026406E-17-1.63201403E-17 1.07796323E-02
12 19 8.48182737E-02 5.68274128E-02 1.02795423E-01 5.41511597E-02-8.48154669E-02
12 20-5.68240017E-02-1.02803293E-01-5.41574384E-02-8.48145714E-02-5.68240572E-02
12 21-1.02802861E-01-5.41563348E-02 8.48182708E-02 5.68274519E-02 1.02794976E-01
12 22 5.41516829E-02
13  1 2.19790991E-02-4.67615293E-02 2.17840590E-17-6.99474859E-07-1.86575430E-01
13  2-2.31821870E-02-5.32141028E-17-2.50922853E-06-4.05307544E-02 1.45953834E-03
13  3 4.43875057E-03-1.15977250E-03-5.09146873E-18-2.58178091E-18-1.40131904E-07
13  4 2.19748512E-02-4.67517441E-02 5.14404747E-16-1.96296433E-07 1.86570406E-01
13  5-2.31807437E-02 3.41130243E-16-7.89282633E-07 4.05132385E-02 1.45942726E-03
13  6 4.43887730E-03-1.16017263E-03 7.15023486E-19-3.20404117E-18 9.17192125E-08
13  7-1.02140823E-02 1.93765117E-02-5.38390639E-17 1.89992810E-01-8.21635142E-02
13  8 2.17985569E-02-1.05223144E-17 7.33298628E-02-4.80995252E-02-1.17904730E-03
13  9 1.70663414E-03 4.88754429E-04 4.17532454E-17 1.95639210E-18-7.59235680E-03
13 10-1.02143056E-02 1.93775609E-02 9.56481447E-18-1.89992191E-01-8.21627841E-02
13 11 2.17946563E-02 2.43647430E-17-7.33304967E-02-4.80973048E-02-1.17890666E-03
13 12 1.70661909E-03 4.88830825E-04-1.41174047E-18-2.25762882E-18 7.59241383E-03
13 13-1.02115664E-02 1.93717856E-02 3.69660294E-16 1.89980296E-01 8.21718298E-02
13 14 2.17869247E-02 2.44496483E-16 7.33301476E-02 4.81049637E-02-1.17874599E-03
13 15 1.70650100E-03 4.88497046E-04-3.40801324E-17 8.08887462E-18 7.59176378E-03
13 16-1.02117459E-02 1.93724161E-02 3.57756891E-16-1.89980127E-01 8.21700236E-02
13 17 2.17862259E-02 1.75951407E-16-7.33313798E-02 4.81036448E-02-1.17867468E-03
13 18 1.70652157E-03 4.88557927E-04 2.04367759E-17-3.80003430E-18-7.59178581E-03
13 19-3.49981140E-02-1.49419623E-02 1.29900795E-01 8.40133097E-02-3.50025894E-02
13 20-1.49434763E-02 1.29894066E-01 8.40063685E-02-3.50038386E-02-1.49439068E-02
13 21 1.29894517E-01 8.40073092E-02-3.49975354E-02-1.49418518E-02 1.29900479E-01
13 22 8.40141445E-02
14  1 2.17904591E-07-5.05659508E-07-2.01166663E-16 2.26987930E-01-7.94656419E-07
14  2 2.71548801E-07-1.02073793E-15 5.78669444E-02-1.26275280E-07 5.26814250E-09
14  3-2.63049395E-09 5.59254442E-08 4.91379133E-17-5.42495378E-17-4.06379459E-03
14  4-2.39865798E-07 5.37843909E-07 1.02730269E-15 2.26991334E-01 3.43965872E-07
14  5 9.35874304E-07 7.24320418E-16 5.79125031E-02-8.76803522E-07-1.45225518E-08
14  6-1.96017637E-09 3.05886778E-09 1.46547364E-17-5.30713899E-17 4.06334044E-03
14  7 1.41760485E-02-2.94658778E-02 1.64310028E-16-1.00245572E-01-1.96668548E-01
14  8-3.58958568E-02 8.20812954E-16-3.56017449E-02-9.10009748E-02 9.05948966E-04
14  9 2.51789725E-03-8.88741182E-03-7.04897860E-18-4.19237669E-17 6.62708211E-03
14 10-1.41761419E-02 2.94661407E-02-5.91293854E-16-1.00245375E-01 1.96670369E-01
14 11 3.58957201E-02 2.42298427E-16-3.56019719E-02 9.10015217E-02-9.05988679E-04
14 12-2.51801377E-03 8.88749228E-03 1.84763129E-17 6.06874459E-17 6.62713882E-03
14 13 1.41763382E-02-2.94647152E-02 8.68636189E-16-1.00250402E-01 1.96672993E-01
14 14-3.59249967E-02 7.31826073E-17-3.55931096E-02 9.09908293E-02 9.06244706E-04
14 15 2.51804551E-03-8.88801597E-03-4.95918801E-17 8.10896999E-17-6.62661413E-03
14 16-1.41760306E-02 2.94642770E-02-4.20211828E-17-1.00249078E-01-1.96673090E-01
14 17 3.59231622E-02-5.63627536E-16-3.55933923E-02-9.09897868E-02-9.06240772E-04
14 18-2.51802153E-03 8.88797520E-03 3.26164638E-17 1.04427014E-17-6.62653136E-03
14 19-1.25355510E-01-7.64864988E-02-1.87381040E-02-1.58598260E-02 1.25358769E-01
14 20 7.64929749E-02 1.87369144E-02 1.58588623E-02-1.25359057E-01-7.64922543E-02
14 21-1.87375998E-02-1.58598713E-02 1.25356665E-01 7.64873536E-02 1.87375336E-02
14 22 1.58593370E-02
15  1 2.70555191E-02-5.60945421E-02 3.59610409E-16 1.86555478E-06 1.86898941E-02
15  2-1.01862135E-01-1.26896344E-16 3.84433977E-06-4.97203273E-05 1.47826568E-03
15  3-1.21390733E-02 1.46731486E-02-4.45877211E-17 2.16961035E-18 1.85223715E-07
15  4-2.70555444E-02 5.60928857E-02 3.45153037E-17-5.32214681E-06 1.86965335E-02
15  5 1.01875339E-01-1.83031362E-16-4.50810366E-06-5.35908644E-05-1.47869704E-03
15  6 1.21388275E-02-1.46729889E-02 7.13068246E-18 3.49492122E-17 3.02109822E-07
15  7 1.24264122E-02-2.74126599E-02-3.50953399E-16-9.69538275E-02 2.08826764E-01
15  8-2.78437488E-02 2.07077378E-16-6.09091842E-02 8.08324899E-02 2.85748857E-04
15  9-1.10637558E-02 1.14172895E-02-3.16597993E-17-2.50490363E-17 3.22292483E-03
15 10 1.24262863E-02-2.74128366E-02-1.41088970E-16 9.69550346E-02 2.08834494E-01
15 11-2.78388403E-02 2.91413655E-16 6.09115224E-02 8.08341670E-02 2.85657532E-04
15 12-1.10640556E-02 1.14177270E-02 4.40240079E-17-2.14314728E-17-3.22307141E-03
15 13-1.24257112E-02 2.74121352E-02 6.64416626E-16 9.69561416E-02 2.08825477E-01
15 14 2.78345078E-02 3.81590185E-16 6.09136506E-02 8.08319399E-02-2.85566613E-04
15 15 1.10634770E-02-1.14168751E-02-4.22707328E-17-1.04177856E-17 3.22357339E-03
15 16-1.24261148E-02 2.74135401E-02-1.42647470E-17-9.69499087E-02 2.08830898E-01
15 17 2.78308756E-02-1.08081733E-16-6.09134446E-02 8.08335119E-02-2.85476251E-04
15 18 1.10634916E-02-1.14171389E-02-2.62892831E-17-4.62378480E-17-3.22326701E-03
15 19 1.23730420E-01 1.08081128E-01-1.16490774E-01-7.21190267E-02-1.23731793E-01
15 20-1.08080210E-01 1.16490053E-01 7.21175653E-02-1.23728920E-01-1.08078723E-01
15 21 1.16492068E-01 7.21199407E-02 1.23735323E-01 1.08085034E-01-1.16493766E-01
15 22-7.21212723E-02
16  1 4.61793601E-07-1.19829618E-06-6.50118458E-16-2.40728082E-01 9.76165066E-07
16  2 1.46693102E-07-3.20970348E-16 4.84254620E-02-5.05763262E-06-1.36379007E-08
16  3-2.75938908E-07 3.20123313E-07-5.67253005E-17-3.51990142E-17-1.06412001E-02
16  4-5.84537539E-07 1.47650695E-06-1.62914640E-16 2.40755649E-01-6.27776112E-08
16  5 9.13064355E-08-1.89730164E-17-4.84247461E-02-5.12129083E-06 2.70428144E-09
16  6 2.65276338E-07-3.45439241E-07-2.68203092E-17 2.58647783E-18-1.06426216E-02
16  7 1.02124908E-02-2.06372270E-02-7.66913492E-16 8.96245386E-02 2.29117460E-01
16  8-9.67621629E-02-8.59822444E-16 5.22668289E-02 1.22633252E-01 4.13593099E-04
16  9-5.25496296E-03 1.04761855E-02 4.53026087E-17 4.01296328E-17-5.68771847E-03
16 10-1.02120324E-02 2.06361174E-02-2.02135117E-16 8.96270333E-02-2.29111337E-01
16 11 9.67633198E-02-4.57180328E-17 5.22720183E-02-1.22628623E-01-4.13565675E-04
16 12 5.25473298E-03-1.04758089E-02-1.73712619E-17 4.56154304E-17-5.68783248E-03
16 13-1.02163141E-02 2.06450891E-02-2.83153976E-16-8.96662168E-02 2.29092719E-01
16 14 9.67787097E-02-6.30519426E-16-5.22836512E-02 1.22624306E-01-4.13873035E-04
16 15 5.25292380E-03-1.04745572E-02 1.87391004E-17-5.39518849E-17-5.68985816E-03
16 16 1.02160650E-02-2.06443163E-02 2.79820088E-16-8.96674986E-02-2.29086032E-01
16 17-9.67804871E-02 9.34979350E-17-5.22877667E-02-1.22619682E-01 4.13869145E-04
16 18-5.25258627E-03 1.04741402E-02 1.01123297E-17 9.96081177E-18-5.68988750E-03
16 19 1.30830112E-01 9.78257756E-02-1.60622204E-02 1.32490681E-03 1.30807101E-01
16 20 9.78093364E-02-1.60308156E-02 1.35194502E-03-1.30811227E-01-9.78119074E-02
16 21 1.60338960E-02-1.35229511E-03-1.30826472E-01-9.78237343E-02 1.60587861E-02
16 22-1.32445471E-03
17  1-5.29357641E-07 3.60562386E-07-1.35571005E-15-1.60960410E-01 1.18736371E-06
17  2 7.83078319E-06-7.85276863E-16-5.80400066E-02 3.14375526E-06-1.69762944E-07
17  3 1.10324082E-07-1.66164471E-07 1.31318923E-17-1.61761156E-17-1.04442560E-02
17  4 1.53922370E-07-9.68182368E-07-1.16432432E-15-1.60920069E-01-1.29264425E-06
17  5 4.26859607E-06-9.42903840E-16-5.80981923E-02-4.34909561E-06-1.13982368E-07
17  6-9.37710006E-08 8.58893508E-08 2.82253912E-17-2.16307315E-17 1.04434778E-02
17  7 1.77731156E-02-3.88236012E-02-1.40343769E-15 2.02669570E-01-9.67859807E-02
17  8-4.56538319E-02-1.09910859E-15 6.98988745E-02-4.85076734E-02 7.51131361E-04
17  9 1.15415615E-02-8.16768765E-03 1.09140495E-16 2.45974660E-17-1.14142894E-02
17 10-1.77730936E-02 3.88242949E-02-7.74071558E-16 2.02669746E-01 9.67813270E-02
17 11 4.56471966E-02-5.30171559E-16 6.98951360E-02 4.85053315E-02-7.50961052E-04
17 12-1.15413907E-02 8.16750080E-03-2.67873533E-17 1.09668148E-17-1.14141974E-02
17 13 1.77709998E-02-3.88213266E-02-4.71812457E-16 2.02662876E-01 9.68355108E-02